5506 13377 011
2490 41 133 22 111 30 145 2 192
2830 1 192 4 65 3 98 30 89 25 442
108 2 98 25 67 4 40
2802 31 416 57 42 3 40 25 33 5 179 2 65 26 214
2354 4 179 29 156 26 208 6 171 35 11 18 83 23 15
1370 29 62 5 171 7 293
3240 39 83 8 419 32 88 6 293 29 232 49 182
2449 9 292 39 41 7 419
3775 11 143 50 111 43 124 39 193 8 292 10 160 46 128 28 12 20 140 33 5 52 35
3213 12 118 11 241 24 75 33 305 21 169 9 160
577 10 241 9 143 33 65
920 13 146 10 118 21 280
4145 15 167 48 17 47 193 14 363 38 9 12 146 45 43 27 326 21 32 53 72
993 15 73 13 363
2078 13 167 16 118 19 51 45 72 14 73 36 182 17 200
266 15 118 17 50
2700 15 200 16 50 374 91 392 11 36 213 34 329 40 73
5 5 83
15 15 51
17 9 140
3337 33 165 56 108 10 169 59 60 12 280 13 32 42 61 27 381
155 30 106 1 111 41 141
1 5 15
5 10 75
3257 30 242 31 444 4 33 3 67 2 442
2089 35 42 5 208 57 266 29 232 4 214
2213 13 326 42 70 59 99 44 245 21 381 53 199
1 9 12
3448 66 142 5 156 6 62 26 232 57 84 7 232 58 189 35 72 49 108
2755 1 145 37 19 31 74 60 15 41 379 22 106 25 242 64 148 2 89
3309 4 416 69 76 67 424 25 444 64 135 57 70 65 32 54 46 30 74
26 7 88
3554 9 5 11 65 70 164 43 335 10 305 63 53 59 164 21 165 56 115
2345 391 86 374 224 40 250 17 329 392 5 411 104
15 26 42 29 72 5 11
1327 15 182 17 213 45 136 40 100 55 195
2 30 19
1 13 9
1025 9 193 62 105 50 95 49 148 7 83 8 41
2704 432 99 34 250 436 78 55 362 36 100 17 73 411 136
4154 80 18 73 129 1 133 30 379 22 141 51 104 75 283 64 120
55 21 61 27 70
2715 9 124 68 35 52 394 33 335 70 170
30 27 245
2800 48 137 72 122 47 78 13 43 15 72 53 103 71 215 36 136 55 288
26 9 128
586 13 193 45 78 53 139
30 45 137 13 17
1127 7 182 58 165 62 61 29 108 39 148
491 39 95 9 111 62 14 52 164
24 41 104
3823 89 81 50 164 76 209 62 132 70 155 93 30 84 40 9 35 43 394
3475 77 196 71 157 59 246 27 199 81 64 47 139 45 103 13 72
3 31 46
2362 72 212 45 288 436 24 40 362 61 17 36 195 83 80
103 59 60 21 108 33 115
2785 26 266 65 17 69 268 31 70 4 42 66 209 29 84
2437 66 186 85 94 74 34 29 189 62 315 49 165
3522 79 124 53 246 87 8 27 99 70 257 81 92 90 21 94 179 21 60 33 164 86 210 88 7 56 60
1 30 15
1 55 17
2624 52 132 85 96 50 14 49 61 39 105 100 57 58 315 89 31 92 62 76 316
5 33 53
2681 30 148 31 135 104 98 67 235 41 120 75 153 78 15 96 113
13 31 32 69 6 57 17
2790 85 158 57 209 97 43 69 327 29 142 58 186
1758 78 233 69 98 31 424 64 235
4 43 35
3747 103 274 107 166 31 76 97 74 65 6 78 234 67 98 66 327 57 268
2262 43 170 33 164 59 257 93 83 94 173 52 155 90 24
2650 72 214 45 215 82 24 77 221 53 157 95 248
4298 45 122 95 167 133 14 101 349 55 212 126 3 91 22 127 130 71 214 120 110 109 42 83 239
215 41 129 75 88
2 58 34
2824 80 10 73 88 99 74 41 283 64 153 104 43 106 34 102 376
1511 52 209 62 316 89 204
933 71 221 95 72 81 188 53 196
2291 69 234 96 311 67 233 64 15 103 262
117 86 67 59 124
2 41 18 75 10
2226 77 188 88 4 122 143 95 39 86 237 108 142 111 178 59 92 53 64
2 71 24
2622 101 10 72 239 436 147 55 80 478 156 134 108 105 531 495 82
14 52 40
3444 129 289 62 96 107 292 100 216 98 16 66 158 119 83 97 133 58 94 89 256
2087 94 134 81 237 59 210 88 35 79 67 111 226
1 59 8
4 86 35 81 4 59 7
3235 93 204 85 256 62 31 119 331 100 150 76 204 121 68 52 81
8 70 24 59 21
2 72 22
7 62 62
1410 110 92 89 204 121 118 70 83 94 71 52 30
2343 86 134 110 259 59 179 70 173 93 71 111 144
2315 77 72 81 39 71 248 120 163 72 167 108 140
1651 113 272 103 133 78 311 64 113 104 103
430 69 74 66 43 85 133 107 57
1 85 16
7 75 74
596 89 150 62 57 85 216
1321 126 10 127 73 72 349 105 231 83 10
2719 125 266 123 10 75 376 106 67 118 155 104 165
2786 78 262 96 133 114 20 107 114 69 274 124 164 113 266
1706 128 180 118 123 113 141 64 98 112 16 96 103 102 165 75 43
3712 436 285 117 27 101 231 127 112 83 531 134 166
16 75 34 102 67
2996 129 96 103 114 131 192 116 36 69 166 124 135 97 57 85 292
2710 122 401 95 140 81 142 120 426 147 88 154 1 149 200
3 72 42
3946 119 305 153 108 115 12 144 250 146 22 93 92 111 169 94 259 135 180 121 97
2625 132 87 110 169 122 188 94 144 86 226 135 95 81 178
1 104 16
4066 130 13 104 141 151 193 103 266 128 183 96 272 139 230 140 261 124 97 142 19
1 103 20
1 110 12
2 107 36
2 105 27
2250 137 181 128 154 140 259 125 186 104 123 102 155
2800 129 74 85 83 110 305 144 123 89 331 121 269
2715 95 163 72 110 108 426 133 234 149 114
1011 144 114 152 40 110 97 129 115 119 269 89 68 93 118
2986 147 143 132 158 81 143 108 401 111 188
1 102 10
1141 107 135 139 109 131 78 113 97 103 164
3262 137 162 102 266 150 311 118 186
7 101 10 72 3
1147 133 212 72 130 134 88 105 112 101 73
1001 104 180 141 24 113 183 118 154 140 113
3457 85 289 136 125 131 355 119 74 156 106 152 288 107 96 121 115
1 113 13
3752 139 68 156 29 157 15 143 15 129 355 148 311 162 50 124 78 107 192 136 126
922 135 212 111 87 147 34 122 158
3111 155 108 134 80 127 212 145 8 149 240 120 234 163 13 72 14 159 247
2601 133 80 127 88 155 196 83 108 495 304 105 166 523 61
3642 110 180 132 212 153 290 161 43 147 262 180 26 183 51 171 181 111 95 138 46
40 131 126 129 125
727 150 42 118 181 140 46 125 162
3 135 46
2453 124 109 151 78 113 230 148 334 165 61 169 97 131 68
3111 137 46 176 36 158 390 128 113 141 30 118 259 150 180 151 188 113 261
13 128 24 140 30
1 113 19
1 131 15
2803 146 62 119 123 166 107 121 114 152 351 110 250 153 154
1 133 8
10 110 22 144 62
2291 149 35 154 22 122 143 108 88 135 262 161 227 132 34
2964 139 334 190 30 131 311 188 49 162 164 165 150 179 185
2600 120 114 168 142 108 200 133 240 147 35 161 101 163 222
3203 170 227 125 311 140 180 182 31 137 42 176 56 158 20
3310 160 12 178 146 140 188 165 395 139 78 158 197 113 193
2947 166 42 129 288 177 172 156 184 144 351 181 176 162 162 121 40
2461 166 152 171 129 174 184 110 108 173 19 144 154 135 290
2 108 1 147 22
902 134 196 133 108 495 57 159 46 164 192
1149 129 106 131 29 162 340 152 184
1 131 15
2828 172 154 186 143 140 390 170 140 176 128 187 16 178 237 150 20 151 197
927 164 125 155 46 167 165 133 247
1 151 12
3283 183 123 189 223 180 66 168 329 135 43 147 227 185 12 149 101
2784 184 137 156 340 193 127 131 50 148 164 181 18 152 162 179 325
3146 175 31 191 16 167 246 189 178 133 13 168 173 201 170 192 161 149 222
3792 495 249 564 44 155 192 534 57 546 165 220 147 159 125 197 151 198 14 549 92 167 242
4231 213 111 194 374 139 61 188 303 178 54 151 395 169 160 203 19 148 150
2978 144 107 208 223 152 42 200 109 177 349 174 324 153 152 199 85 211 35
3005 192 182 163 246 159 165 164 242 198 8 197 176
1073 163 173 189 72 161 329 149 142
181 165 160 139 97
3063 186 171 206 45 150 227 182 70 158 140 202 294
1472 183 146 174 274 135 181 153 129
22 158 154
1 153 19
1966 171 274 208 47 153 184 166 324 183 58 210 138 200 2
5 163 31
164 140 36 158 128 150 56
2578 181 66 152 172 195 16 199 52 166 349 184 301 211 57
1347 158 237 196 19 186 174 194 136 165 54 151 146
1754 148 185 188 78 162 325 193 209 205 10
50 135 26 161 66 183 20
494 184 97 177 66 152 176 162 18
19 170 70 150 31
3498 171 146 217 89 219 198 180 20 174 58 229 69 161 123 210 206 189 170 135 51 226 150
4094 195 51 234 229 211 145 216 131 162 137 223 192 193 173 177 301 181 97 209 128 233 16 221 34
1 161 12
2715 215 139 158 143 170 171 212 314 207 18 187 10 202 101 178 174 194 88
2 158 16 186 10
2886 218 16 165 303 190 28 148 49 213 184 179 78 193 233 204 36 225 145 205 57 236 59
2660 168 72 201 167 219 203 222 38 183 170 161 223 163 178
24 148 30 188 28
1 163 16
3655 220 104 167 182 231 194 241 173 201 325 240 85 163 161 197 148
2833 209 139 188 233 162 127 221 111 225 158 179 209 205 31 184 173
2142 224 169 213 144 165 374 228 76 186 88 212 108 178 136 238 83
8 184 51 177 16
1 178 19
1519 192 148 220 195 167 176 164 151
5 167 8 164 14
30 177 52 166 85
53 174 2 166 109
2566 189 167 230 104 219 47 231 147 222 78 192 325 163 170
1410 214 136 206 20 186 101 170 294 215 186
1 165 19
3 188 36
25 179 10 188 57 193 31
17 170 45 202 20
1 186 18
1671 211 72 166 223 174 47 227 211 226 99 210 150
211 184 128 193 139
897 226 36 183 206 208 150 174 138
2808 258 230 234 265 227 295 247 128 184 145 208 72 166 35 244 150 177 57
1532 224 186 237 72 215 156 186 314 194 108
1271 228 213 194 144 188 184 236 60 165 111
1616 215 219 202 136 242 166
3238 232 8 186 139 212 156 242 93 214 219 243 3 202 186 249 167 245 57 237 277
31 184 131
22 183 89
1 188 16
4714 246 358 226 323 222 37 230 92 229 83 201 47 235 13 183 198 239 114 189 203
2267 192 104 164 147 197 195 564 149 241 253 570 85
123 223 93 184 34 193 111
53 201 78 219 37 189 38
2644 257 23 221 93 236 117 234 82 184 192 247 209 225 323
1607 237 202 212 186 194 169 238 161
1753 223 323 188 145 193 158 236 345
3015 183 150 227 109 264 65 261 77 246 74 208 99 210 36 219 323 251 296
2883 248 60 260 144 251 99 226 109 208 211 258 35 244 51 211 295
2949 213 213 236 175 256 152 194 76 259 132 262 131 238 178
76 183 69 219 83
3154 267 151 231 115 246 208 253 84 201 104 240 251 219 92 270 71
562 192 194 230 115 201 147 240 117
1 215 8
1 184 16
1015 223 82 247 68 184 229 211 265
1 219 13
3946 257 121 284 3 275 139 188 59 228 175 259 301 223 117 225 345 273 114 256 30 213 60
3251 215 277 255 337 212 72 249 158 272 112 224 202 265 117 243 56 238 107 269 27
1608 237 107 262 75 228 178 194 83 224 161 255 175
21 219 114
2816 230 251 250 60 241 77 268 200 231 117 252 299 192 85 270 3
2057 588 48 240 77 583 29 599 11 192 173 252 74 220 253 594 114 570 110 603 165
1813 271 128 214 166 254 47 249 218 215 93
4 215 3 237 56
134 227 51 211 150
8 215 57
4021 267 187 230 208 264 132 280 202 266 79 219 358 226 74
2257 275 5 223 209 211 128 257 127 258 189 278 180 234 68
7 227 60
1230 271 80 215 167 237 158 265 159 242 218
6 240 60
2297 261 240 260 250 227 99 226 296
3394 294 196 268 173 603 170 274 239 240 299 635 151 241 74
15 230 84
3 242 47
4210 272 135 237 337 238 175 296 162 262 226 265 245 281 292 269 39 287 64
58 259 20 236 30 228 152
683 275 141 247 127 236 121 223 23
3396 276 50 260 345 278 102 295 188 263 110 247 189 227 35 285 85 211 230
2574 256 20 228 132 275 130 262 160 281 135 282 59 293 111 236 301 283 75
3076 279 93 227 144 258 345 285 203 261 283 251 250
2166 264 274 260 283 226 77 251 240 285 62 290 157
1180 259 160 238 75 281 156 255 226 228 131
16 258 110
2561 261 274 290 180 298 188 280 279 246 132 226 65
2306 249 159 237 117 287 361 255 245 271 157 272 124
16 246 79
3297 277 42 268 198 246 187 270 25 288 57 291 66 230 151 297 246 280 258 300 136
2129 267 198 294 32 252 173 240 200 288 296 270 41
43 237 27 255 39
119 268 41 240 3 267 25 230 71
1409 265 157 287 76 286 111 242 128 249 80
375 265 124 237 112 255 135
16 236 114
2116 603 219 638 89 588 99 594 62 619 246 635 73 252 239
3085 257 141 259 130 289 77 278 312 236 139 293 207 309 185 247 5 284 49
7 258 50
5 267 42
3289 258 102 289 43 275 312 295 69 309 184 247 180 303 327
48 260 93
1663 267 258 298 240 297 122 246 202 264 279
3312 293 183 296 74 299 86 259 135 292 115 262 156 301 273 305 18 282 59 255 292
51 259 59 281 59
24 259 75
28 275 49 236 3
2149 303 145 258 85 295 149 261 62 260 203 304 292 290 89
1263 307 324 271 111 287 235
3304 296 128 255 64 307 196 286 235 271 76 311 191 316 100 265 361
3977 294 400 320 203 267 57 327 85 314 178 308 12 300 342 268 296 324 80
53 275 77 278 43
3922 298 301 318 71 285 89 261 157 264 180 317 306 304 142
5 267 66
48 293 74 281 115
2900 292 74 259 111 275 207 321 190 312 121 309 162 281 183 301 145 302 52
1128 314 76 288 400 635 129 252 196 268 32
923 303 139 278 69 285 149 258 188
838 281 74 287 128 311 88 301 151 255 162
3371 331 79 267 246 315 152 298 79 280 122 310 219 300 470 333 150
2273 264 188 297 79 310 226 315 83 280 240 317 59 290 301
8 281 86
1901 297 470 267 136 327 101 331 51 288 342 324 23
3263 321 228 281 273 311 295 296 151 306 10 293 145 328 155
4 293 52
3354 325 229 295 139 278 327 323 76 309 172 313 103 304 84 285 145
1674 285 292 290 142 317 81 323 207 303 84 322 46
1 281 18
1 301 10
2874 287 196 316 106 319 94 326 182 286 324
1 288 12
2900 312 178 329 231 275 185 278 184 303 172 293 162 325 62
878 315 174 297 219 298 226
2027 316 182 287 191 301 295 296 88 328 77
901 329 86 321 201 338 21 293 121 309 178
14 303 103
3852 686 101 294 76 288 178 680 173 362 250 685 2 635 326 320 308 672 210 689 41
3599 333 187 298 83 347 23 332 329 317 108 310 174 348 135 330 90 297 152 357 13
2062 287 100 311 182 319 322 335 68 307 106 342 123 328 157
3281 318 28 339 119 304 81 336 18 298 59 332 293 315 108 323 241 290 306
38 317 28 290 71
2165 316 322 349 102 342 81 326 213 356 151 307 94
2886 341 27 344 309 327 149 685 15 324 63 314 308 689 21 288 203 362 123
3598 312 201 337 36 301 228 338 171 293 190 346 150 345 124 328 191
61 323 63 304 46
3761 339 268 304 207 322 63 317 241 350 63 303 76 334 18 325 156 340 192
128 327 193 320 63 288 80 300 23
2672 340 354 329 134 303 229 323 156 309 62
1880 307 182 349 186 319 213
3792 300 101 348 85 355 30 344 114 288 85 361 178 732 100 324 193 320 149 371 146 331 123 333 216
2143 301 155 342 271 316 157 345 64 321 191 311 77 337 32
3162 312 86 325 134 340 87 343 480 338 75 309 231
11 315 90
402 300 51 297 79 333 185 327 123
2180 358 19 339 47 315 329 351 166 357 213 317 293
2032 331 185 348 286 297 150 315 187 327 216
1 323 18
17 316 68
2 317 18
18 345 11 321 36 328 32
676 343 204 346 164 312 21 329 75 321 171
1727 351 220 352 12 332 47 350 248 317 119 323 268
4079 343 116 329 87 350 321 323 192 368 52 366 164 364 101 325 354
2 320 27
2959 316 123 367 144 363 110 356 141 354 86 328 271 345 234 319 81 372 69
3972 338 204 364 199 329 480 734 204 746 33 346 377 340 116
1978 320 309 733 85 327 114 361 198 362 285
962 321 124 337 11 359 247 342 234 346 45 328 64 372 74
2641 359 429 343 377 338 164 748 117 353 72 746 57 321 150 345 45
3 348 4 315 23
2404 373 122 371 93 333 286 365 46 315 135 327 85 347 4 369 125 357 189
2173 326 186 356 400 319 102
2809 339 248 740 111 741 74 351 168 735 118 323 63 368 89 736 27 366 82 370 57 340 321
2847 350 168 370 50 735 263 332 166 339 220 360 26 357 289
1 339 12
15 346 72
24 342 86
3 327 30
4334 319 151 349 400 342 141 763 150 367 300 742 13 743 162
3884 745 72 369 369 735 104 332 213 358 27 753 93 744 91 348 189 315 13 351 289
9 357 27 332 19
3320 739 404 372 18 738 48 748 40 345 247 346 429
2 351 26
802 732 151 327 178 344 198 733 114
3535 733 209 314 250 672 22 675 132 704 525 320 123 344 285
8 342 110
1049 340 101 734 205 366 78 368 80 343 199
3 348 46
3161 350 82 740 344 364 78 766 70 368 146 734 298 340 164
2169 356 300 342 144 742 51 743 102 372 286
346 364 80 350 89 366 146 740 123 340 52
3580 373 190 371 124 754 272 732 162 348 125 753 133 768 65 749 45 357 369
15 350 57 351 50
984 732 228 327 146 348 93 369 124
3120 359 18 742 44 737 23 757 91 738 28 743 111 367 286 760 107 342 69 756 62 752 86 345 74 739 165
363 369 190 348 122
2384 375 61 17 91 34 224 391 238
3828 391 295 397 179 408 148 374 61 388 136 409 10 376 66
3553 397 339 386 49 377 263 375 66 388 61 401 103 415 180 413 39
1312 401 68 378 191 376 263
2344 404 10 379 139 401 211 377 191 398 235
1983 378 139 380 61 396 91 398 244 389 201
962 381 100 379 61 389 209
2532 390 287 380 100 389 66 382 330 400 20
4384 410 211 428 96 425 221 394 43 393 43 419 4 383 268 381 330 418 38 390 348
3182 394 59 410 202 382 268 384 181 399 142 412 11
2026 383 181 399 137 385 67 387 95 395 167
56 384 67 387 47 395 68
5 376 49
2050 1428 362 384 95 395 324 385 47 423 227 399 127
138 376 61 375 136
2997 426 29 396 62 398 71 416 172 400 371 402 25 381 66 380 209 379 201 406 23
2436 381 287 418 172 382 348 400 348
3270 427 75 374 238 34 86 375 295 411 221 405 31 414 158 408 237 403 85
1 34 5 17 11
3 382 43
88 382 43 383 59
1223 407 39 384 167 399 251 385 68 387 324
79 389 62 379 91 398 78
1606 408 148 375 179 376 339 415 210
2995 424 66 396 78 416 315 401 199 404 38 389 71 379 244 378 235 421 147
3424 407 58 429 207 430 71 383 142 423 49 387 127 384 137 395 251 410 103
2419 406 26 381 20 389 371 418 362 426 140 390 348
2155 420 254 398 199 415 140 424 151 417 95 377 68 376 103 378 211
5 389 25
22 391 85
19 398 38 378 10
3 391 31
4 389 23 400 26
15 395 39 399 58
3537 411 85 432 8 397 148 427 84 434 69 415 63 431 131 435 304 375 148 391 237 409 31
3 375 10 408 31
3141 399 103 383 202 430 305 419 153 382 211 425 92
2747 432 251 34 104 414 93 408 85 427 22 40 136 391 221
1 383 11
6 376 39
139 391 158 411 93
3394 376 180 443 41 397 210 431 109 401 140 434 173 433 277 420 127 424 11 408 63 422 25
2432 398 315 389 172 426 174 441 198 421 178
7 401 95
3808 450 258 382 38 428 261 444 169 426 333 390 172 400 362
101 410 153 382 4 425 69
3866 452 149 454 127 415 127 401 254 438 170 424 132 421 88 433 227
3088 398 147 446 13 416 178 441 182 420 88 438 208 457 200 424 158
2 415 25
2986 1486 77 1466 213 442 23 429 220 445 143 399 49 387 227 1428 40 1490 211 440 4
614 420 132 401 151 433 46 398 66 421 158 415 11
3427 439 133 382 221 430 97 419 69 437 64 444 226 428 286 410 92
2106 389 29 450 22 418 333 400 140 441 190 416 174
104 408 84 391 75 411 22
1052 425 286 418 261 382 96 444 92
3426 445 220 439 138 456 97 399 207 430 386 423 220 459 260 440 46 451 45
2124 429 386 439 212 425 97 399 71 410 305
317 408 131 434 61 415 109
2274 436 402 408 8 448 140 435 230 40 99 411 251
1972 454 130 443 142 453 164 420 227 424 46 415 277
1382 448 18 431 61 447 82 415 173 408 69 435 38 443 233
1754 449 161 448 126 432 230 434 38 408 304 447 155
2895 55 24 467 16 83 147 40 78 105 285 478 111 448 86 432 402
88 444 50 439 73 425 64
882 420 170 421 208 452 89 457 81
2188 458 17 437 73 425 133 470 98 444 51 429 138 459 188 455 108 430 212
10 429 46 423 4
3568 463 12 468 103 416 198 450 199 460 282 426 190 457 50 421 182
2 423 23
2626 474 75 461 205 434 233 453 231 415 41 448 44 476 81 433 142
2588 450 96 466 109 418 169 437 50 439 51 428 92 470 139 425 226 455 226
1851 423 143 456 211 429 220 464 111 471 74 1490 124
1 421 13
204 435 155 434 82 448 116
3666 461 313 432 140 447 116 435 126 436 86 449 79 443 44 478 146 465 14 434 18 483 62
195 435 161 448 79
3091 481 176 468 247 475 14 466 150 441 199 444 96 418 258 426 22
6 429 45
1573 454 70 477 260 420 149 438 89 457 191
2045 474 261 477 119 454 191 476 27 443 231 433 164
1412 453 191 472 36 420 127 477 244 452 70 433 130
184 439 108 444 226
3555 464 241 490 87 473 219 485 13 445 211 500 2 459 370 429 97 482 313 498 191 469 108
1513 421 200 477 111 462 43 438 81 460 58 452 191 441 50 479 125
1 439 17
3114 494 153 498 107 470 38 429 260 439 188 469 23 466 153 456 370
1220 468 114 457 58 463 36 441 282 479 123
1674 480 147 474 82 443 205 478 125 448 313
7 457 43
4 460 36 441 12
824 482 70 471 160 445 111 456 241
1 448 14
4070 494 99 470 294 450 150 497 212 444 109 488 294 481 134 459 153
1 436 16
2099 487 264 460 114 481 16 450 247 441 103 479 99
24 459 23 456 108
473 444 139 439 98 466 294 459 38
2577 1500 257 482 110 445 74 1490 319 1538 82 464 160
4 454 36
78 456 219
3065 492 128 480 112 461 82 511 63 486 9 509 60 443 75 491 232 477 115 476 47 453 261
1 450 14
78 474 47 443 81 453 27
4172 474 115 453 119 492 306 454 244 457 111 452 260 496 168 479 189
4161 83 156 507 64 448 146 483 181 502 257 489 92 491 155 508 77 495 103 461 125 484 107 436 111 480 77
2932 477 189 501 295 487 180 510 63 457 125 460 123 496 170 468 99
658 474 112 461 147 478 77 491 108
1517 499 139 468 16 487 110 450 176 466 134 488 62 493 132
1712 490 70 471 110 1538 37 456 313 498 269 464 70
175 448 62 478 181
194 508 105 478 107 495 135
1 456 13
1 474 9
2886 517 33 499 182 519 148 510 202 481 110 468 264 504 24 479 180
1061 481 62 497 22 505 68 466 294 493 162
19 478 92
81 482 70 456 87 498 24
2086 478 155 509 390 480 108 511 37 502 96 474 232
3394 474 128 503 80 501 143 528 98 535 7 511 331 477 306 496 203 530 159
1807 488 162 499 249 481 132 505 166
1675 459 153 514 151 497 351 498 70 466 99
4291 164 249 83 82 508 275 506 30 523 44 478 103 134 304 155 57 502 28 484 135 534 225
931 492 203 477 168 479 170 501 116
1929 488 22 505 405 494 351 466 212 514 55
3390 490 24 494 70 515 124 520 78 1538 160 500 30 459 107 514 96 513 200 456 191 512 14 482 269 518 118
3641 493 249 533 144 519 91 505 44 504 9 522 179 487 182 524 173 539 169 481 139
2 498 30 456 2
2604 521 12 496 116 479 295 528 232 492 143 510 268
4233 491 96 495 28 509 191 537 212 546 112 507 122 508 228 534 347 478 257 531 21
11 492 80
6 487 24 499 9
4004 499 44 529 46 497 405 493 166 488 68 545 191 522 256 514 125
2 495 30
105 502 122 508 33 478 64
1182 495 275 507 33 502 228 484 105 478 77 516 22
3508 538 239 511 218 474 60 491 390 537 148 502 191
1310 519 107 501 268 487 202 479 63 528 127
3240 474 63 526 9 492 331 491 37 509 218 538 225 530 133 525 116
1 498 14
952 515 116 518 83 527 161 498 200
3159 498 96 545 132 548 70 520 497 494 151 551 216 497 55 505 125 555 151
1167 527 120 513 116 520 231 498 124 536 132
2 508 22
8 487 33
2440 513 83 498 118 1564 205 1548 216 542 136 1538 262 527 3 1572 82
2275 499 91 528 28 487 148 533 156 524 63 510 107 532 266
1795 551 41 515 231 498 78 536 129 514 497
1 501 12
1364 505 256 550 86 545 52 539 228 499 179
24 495 44 134 61
284 519 63 533 82 499 173
51 511 116
1 511 9
3420 542 275 554 128 518 3 561 43 1564 124 515 120 513 161 551 102 540 13 536 264
2235 530 81 532 228 510 127 543 258 492 98 519 28 501 232
4 505 46
1851 538 268 528 81 492 159 535 2 552 58 511 133 543 303
2 502 21
3859 528 228 563 15 576 123 519 266 559 2 553 342 543 81 562 263 533 137
1862 532 137 499 144 547 182 541 13 524 82 553 106 539 52 519 156 544 130
1882 502 347 495 225 164 57 546 267
1 530 2 492 7
750 520 129 551 99 527 264 515 132
3424 573 151 509 148 546 130 565 87 538 223 556 72 502 212 560 36 557 291 558 128
2246 509 239 557 109 530 268 537 223 552 177 511 225
2841 522 228 547 293 499 169 533 52 566 272 550 444 544 17
1 527 13
1 533 13
2271 527 275 518 136 1589 190 1572 145 554 40 1564 148 1590 59
3309 562 224 559 18 532 81 552 122 530 303 528 258 572 308
166 539 17 547 193 533 130
2546 555 133 569 117 551 53 548 41 514 132 550 275 568 80 505 191 574 46 522 52
3666 565 57 570 251 537 130 534 267 502 112 556 104 564 74 164 165
1691 544 193 533 182 566 113 539 293 553 189
13 545 41 514 70
31 164 92
2098 545 275 522 86 580 58 539 444 574 172 566 105
2963 514 216 545 53 561 215 577 7 567 142 536 99 520 41 555 24 568 549 527 102
2395 557 189 538 177 571 145 530 58 543 122 572 133
3241 532 342 584 182 579 37 547 189 576 92 566 151 533 106 582 191
3101 1625 169 542 40 602 84 527 128 575 263 1589 360 561 198
255 545 133 551 24 514 151
127 565 51 546 104 537 72
2152 581 5 571 133 538 109 573 104 537 291 552 189 558 71 578 65
57 557 71 537 128
4 532 2 543 18
2 537 36
1084 551 215 527 43 577 121 575 124 554 198
1347 572 83 576 157 532 263 543 224
1 532 15
509 570 97 164 44 220 149 546 74
2678 573 522 570 330 546 57 537 87 588 150 600 65 556 51
1517 550 105 547 113 580 170 539 272 553 151 582 179
32 551 142
3495 577 127 586 53 545 80 574 112 551 549 585 299 569 146 597 94
417 568 146 545 117 574 88 585 5
2309 546 251 220 85 588 152 565 330 564 97 583 79 241 110
3395 589 20 557 133 572 369 613 32 552 145 596 309 592 132 578 176
3714 571 369 576 223 552 133 562 83 543 308 590 21 592 115
2908 557 104 591 144 565 522 537 151 578 228 598 189 600 126
2614 569 88 580 402 597 180 545 46 550 172 568 112 609 174
2705 593 61 554 263 602 316 608 93 561 124 585 128 577 136
3394 532 123 592 94 584 222 605 121 553 92 572 223 587 147 562 157
941 585 44 568 127 561 121 551 7 593 47 575 136
2648 596 146 595 57 571 176 611 50 581 168 557 65 573 228 601 129 598 121
5 553 37
3112 582 298 609 140 550 58 604 201 574 402 566 170
68 578 168 557 5
2470 604 272 553 191 580 298 606 10 584 129 566 179
17 570 79 241 29
2943 582 129 614 171 605 487 553 182 592 40 576 222 624 162 604 178
3699 593 132 569 5 575 128 608 198 568 299 577 44 597 227 615 218 612 79
3 568 53
36 576 147
2672 594 183 619 157 600 204 565 150 607 66 274 99 570 152 241 48
1 571 20
1 572 21
89 573 144 598 36
3273 584 40 624 92 605 181 576 94 571 132 621 13 572 115 622 192 629 183 613 176
209 577 47 575 61 585 132
789 274 62 588 183 241 114 603 158
7 578 57
2551 611 242 571 309 634 129 616 13 578 146 613 169
2273 627 12 615 69 617 239 609 176 568 94 574 180 585 227
3147 573 189 628 297 611 181 600 266 601 175 591 36 620 136 578 121
1 241 11
2544 588 204 628 99 610 25 619 157 630 215 573 126 598 266 636 54 565 65
205 598 175 578 129
3637 1640 79 631 134 1619 117 642 289 608 143 554 84 1669 33 1625 81 575 316 1642 190
1372 594 158 274 219 241 165 252 170
1753 623 10 614 144 609 85 625 43 580 201 582 272 584 178
1616 584 487 576 121 592 181 614 87
1 582 10
4 588 66
1782 632 146 631 65 615 131 633 125 612 32 627 95 602 143 575 93 585 198 618 34
3853 649 90 597 176 604 85 574 174 580 140 641 153 625 332 617 259 647 222
2 600 25
1659 634 77 596 242 628 161 598 181 578 50
10 585 79 608 32
2240 643 99 571 32 629 186 596 169 592 176 634 194
2423 584 171 624 122 623 96 604 144 637 306 625 172 605 87
1213 597 69 608 131 585 218 627 270
1 596 13
1598 641 83 627 162 597 239 609 259 626 20
2 608 34
3347 630 163 588 157 638 63 274 246 635 296 600 157
19 598 136
1 592 13
302 592 192 629 79
23 604 10 614 96
1928 584 162 592 92 644 136 629 214 637 137 614 122
2029 609 332 647 50 637 21 639 271 604 43 614 172
1 617 20
3060 649 262 597 12 615 270 653 75 641 37 608 95 645 18 617 162 633 286
2174 640 143 598 297 611 161 636 310 600 99
3321 652 55 643 145 622 79 658 6 613 186 592 183 624 214 644 253
2034 619 163 648 38 636 241 657 81 635 150 600 215
623 602 134 642 91 608 65 633 147
214 608 146 633 128
4315 631 147 650 55 653 263 654 51 608 125 627 286 642 199 632 128 678 32 661 404
3404 643 161 662 216 613 194 596 129 636 85 655 98 640 128 611 77
4034 274 73 252 151 314 326 619 296 638 127 630 150 651 158 294 129 656 29 672 124 657 150
4338 666 47 684 68 634 85 628 310 681 58 630 241 600 54 640 102 662 115 655 55 657 382
4047 625 21 614 306 660 305 659 19 644 145 639 249 667 209 646 78 624 137
169 619 63 635 127 274 89
2053 637 249 647 156 625 271 660 167
350 628 143 636 102 634 128
454 609 153 627 37 617 83 649 98
4260 1690 33 1640 127 1675 77 1653 137 1654 133 654 255 631 91 633 199 1683 91 602 289 1642 82
2513 658 166 662 103 634 161 652 81 676 88 673 180 629 145 674 13 613 99
1880 663 98 658 43 624 136 629 253 637 145 667 183 664 22 669 21
1 627 18
7 637 78
3012 639 156 677 128 609 222 625 50 660 66 670 108 649 92 665 339
6 630 38
1724 670 226 627 262 668 10 653 178 641 98 609 90 647 92
8 633 55
42 635 158
75 658 8 629 55 643 81
863 627 75 649 178 670 19 633 263 678 142
1601 671 215 1690 168 661 51 642 255 633 51
140 662 75 636 55 634 98
2 635 29
2540 681 51 675 369 684 235 672 123 630 81 636 382 635 150
1798 652 8 643 166 691 23 669 326 663 19 629 6 673 238 644 43 694 139
1 637 19
3744 683 199 665 150 667 88 669 143 639 167 690 53 637 305 695 357 647 66
2220 671 69 679 320 688 77 654 51 633 404 678 182
2495 693 114 684 123 692 14 655 75 634 216 643 103 676 58 673 169 636 115 666 141
127 644 98 658 19 669 65
2 644 22
1537 683 119 660 150 647 339 677 195
330 662 141 636 47 684 91
1561 637 209 682 41 644 183 660 88 669 259
1 649 10
3323 644 21 667 259 658 326 707 85 703 178 708 39 663 65 694 125 695 165 660 143
3436 649 226 653 19 697 100 677 266 678 246 702 263 647 108
3050 679 165 661 69 1731 153 654 215 700 122 1690 121 1714 250
1620 657 123 635 124 675 383 314 210 362 22
2077 676 98 691 222 658 238 643 180 687 86 692 22 662 169
1 643 13
3242 684 208 672 383 657 369 704 80 698 193 362 132
85 662 58 673 98 643 88
2213 683 82 702 106 665 195 690 158 670 266 647 128 706 109
1942 670 246 697 65 653 142 688 222 633 32 661 182
1551 688 128 700 173 671 165 661 320
27 314 173
100 657 51 636 58 684 31
2 667 41
1171 677 82 665 119 690 270 660 199
3916 693 335 698 78 716 130 712 193 662 123 681 31 701 21 675 208 657 235 666 91 636 68
1 314 2 320 15
36 314 101
25 673 86 691 66
2591 697 115 714 165 696 14 700 153 679 128 713 145 678 222 661 77
15 320 21 314 41
2833 711 169 660 53 683 270 699 16 706 89 677 158 702 83 695 164 719 95
1712 658 23 693 240 687 66 709 193 673 222 692 11 710 62 694 95
30 662 14 691 11 673 22 693 45
3346 684 335 716 199 724 19 691 240 1089 30 731 133 692 45 709 215 662 114
3064 717 81 669 125 729 119 658 139 691 95 709 223 1087 86 707 96 708 296
3560 703 114 1091 85 669 165 726 58 1090 59 660 357 711 320 705 24 690 164 708 195
1 688 14
914 702 111 713 164 688 115 670 100 678 65
1189 675 193 684 78 712 109 704 97 715 147
1 690 16
1957 671 122 721 206 688 153 1731 140 679 173 714 35
2 684 21
3906 706 114 677 106 713 175 723 315 670 263 697 111 719 152 730 1 722 16 690 83 1092 16
276 669 178 695 114 708 68
2616 362 525 675 80 750 155 715 325 733 45 698 97
2 695 24
165 677 109 702 114 690 89
292 708 155 694 96 669 85
2189 669 39 718 20 726 267 1087 104 703 68 695 195 694 296 707 155
4014 693 215 710 81 1087 366 724 9 729 55 694 223 691 193 1089 433
107 709 81 691 62
2041 690 169 1091 185 695 320 719 228
2689 715 211 684 193 698 109 1094 188 716 192
2701 714 144 1088 262 702 175 697 164 688 145 727 75 720 15 723 219
1141 728 7 721 158 700 35 727 210 713 144 688 165
3425 698 147 704 325 1094 128 712 211 1101 179 725 13 750 179 1108 69
1922 693 199 684 130 1094 67 712 192 1096 148 731 182
28 694 81
3 708 20
3099 702 152 1100 226 1092 100 690 95 723 46 1103 121 711 228 1091 156
1 713 15
3998 1119 162 714 158 2118 227 1756 24 727 239 700 206 1744 139 1107 64 1731 126 1105 139 1757 31
1 702 16
3629 1088 284 702 315 1100 115 719 46 1092 103 713 219 1106 291 730 9
2 709 9 693 19
1 715 13
1034 1090 236 1097 29 708 267 1087 42 695 58
2207 1088 88 721 239 1099 111 728 43 714 210 713 75 1105 90 1107 15
5 714 7 727 43
108 709 55 1087 45 694 119
1 702 1 723 9
1692 1089 191 1095 28 1102 182 716 182 1096 184 693 133
3243 768 177 759 88 327 100 733 114 369 162 747 281 361 151 371 228
1924 344 85 750 362 362 209 732 114 747 108 704 45 361 114
3793 766 241 758 71 366 298 343 204 364 205 774 12 748 94 746 206 765 112
1674 741 124 744 340 351 263 357 104 350 118
6 350 27
1 372 23
29 359 48 739 22 372 28
2457 756 223 770 32 372 165 748 193 738 22 755 48 359 404
3411 350 111 366 344 741 319 766 122 771 283 368 123 761 41
3086 350 74 740 319 735 124 782 9 771 135 744 210 772 159
58 743 29 356 13 372 44 367 51
3333 760 354 372 111 356 162 763 153 367 102 742 29 764 20 769 234
3334 357 91 735 340 772 196 751 9 753 264 741 210
16 357 72
719 734 206 748 233 343 33 346 57
3826 768 167 733 108 750 270 773 501 1126 147 732 281 1108 149 759 17 783 70
3160 359 40 770 68 785 86 765 364 767 43 734 94 775 145 746 233 739 193 346 117
6 369 45
3307 1108 200 715 179 747 270 733 362 704 155 1115 35
1 744 9
16 372 86
3133 369 133 744 264 791 151 772 170 754 450 357 93
3460 768 53 791 85 369 272 792 142 753 450 762 205 777 139
7 739 48
3407 770 65 757 177 739 223 372 62 760 147 775 274 790 89 781 215
670 372 91 760 109 756 177
43 734 71 766 76
10 732 88 747 17
2298 756 147 743 354 780 182 769 162 781 88 372 107 757 109
9 740 41
154 754 205 768 22 777 66
2859 797 117 784 249 769 85 776 29 356 150 743 153
1 743 20
2521 786 85 767 83 734 112 766 111 748 364 788 156 785 184
3048 788 133 774 15 771 302 734 241 740 122 758 76 801 55 786 34 366 70 765 111
81 765 83 748 43
2782 732 177 795 113 754 53 369 65 747 167 777 173 794 96 787 13 762 22 783 136 778 14
631 780 21 760 162 784 64 743 234 763 85
301 739 32 748 68 775 63 756 65
3496 766 302 801 160 782 85 789 281 740 283 741 135 799 20
3619 809 47 779 91 803 38 808 55 782 273 744 196 741 159 791 208 813 76 753 170 805 6
3918 798 176 1126 449 1154 36 807 123 783 88 747 501 794 148 1161 97
5 766 15 734 12
1663 790 61 756 274 800 129 796 97 770 63 748 145 785 57
2 763 29
3228 754 139 791 64 768 173 795 200 792 131 814 78 762 66 816 300
1 768 14
11 772 91
3837 769 21 784 215 802 258 835 106 806 328 760 182 793 30 781 292 829 12
1834 790 165 756 215 760 88 780 292 802 187
2663 801 107 820 56 813 165 805 19 771 85 789 338 772 273 741 9
344 768 136 773 88 747 70 794 82
1734 797 82 780 215 763 249 769 64 806 87 810 128
2225 748 86 812 142 775 57 765 184 796 315 788 206
91 766 34 788 70 765 85
1 768 13
1123 786 70 812 70 765 156 766 133 785 206 801 111
1610 782 338 799 46 771 281 801 143
3225 839 68 834 107 800 69 796 271 811 6 802 219 756 89 775 61 781 165 827 192 819 117
3267 816 19 817 117 753 151 772 208 777 64 808 270 792 146 754 85
539 777 131 754 142 791 146
4 780 30
3791 798 44 831 113 816 59 815 171 807 231 804 15 773 148 795 301 837 114 783 82 768 96 826 95
1490 794 301 815 33 777 200 816 89 768 113 814 60
4047 812 100 785 315 775 97 811 8 827 131 834 46 790 271 800 294 822 381
786 784 82 763 117 810 156
624 794 44 807 172 773 176
11 771 20 789 46
476 790 69 775 129 796 294
3842 820 58 818 303 789 143 823 262 782 107 788 111 771 160 825 3 812 127 766 55
1891 790 219 819 50 839 97 780 258 781 187 835 125
11 772 38
1 794 15
4 782 19 772 6
1363 810 245 835 139 780 328 784 87
3058 798 172 773 123 831 45 838 67 1169 62 841 45 794 231 1161 201
3901 816 127 843 158 772 55 813 351 821 76 845 95 836 77 809 369 791 270 817 227 848 173
218 808 369 772 47
3342 847 110 784 128 832 31 797 156 835 197 806 245
1 790 6 796 8
3445 785 142 822 221 849 71 796 100 833 33 818 335 852 63 788 70 801 127
2605 820 115 808 351 845 171 782 165 821 44 830 20 772 76 840 78 828 3
54 816 20 795 60 777 78
93 816 77 795 33 794 171
2918 795 89 814 20 815 77 791 19 824 10 843 177 794 59 817 212 777 300 808 127 826 247
711 808 227 816 212 791 117
2755 801 303 844 277 852 225 859 76 823 158 812 335 842 38
56 790 117 839 42 802 50
586 801 58 823 81 813 115 828 8 782 56 840 74
49 813 44 808 76
1634 834 164 812 221 849 203 796 381
2687 801 262 825 30 820 81 844 253 818 158 853 37 840 247
1 816 10
3 801 3 823 30
3740 860 75 867 181 837 362 794 95 843 195 816 247
913 790 192 834 279 796 131
1 813 3 820 8
1 780 12
1 813 20
2959 855 118 837 394 807 45 838 162 872 173 794 113 841 142 868 134
2 835 1 810 31
2 812 33
3986 790 107 849 245 796 46 822 164 839 204 861 239 856 62 863 85 850 103 827 279
3924 810 197 847 190 851 6 850 273 839 109 802 125 832 1 806 139 780 106 846 39 857 188
14 808 77
2762 831 394 875 71 794 114 867 28 826 362 862 79 872 64
2970 855 56 1210 74 1189 195 1161 89 807 67 841 78 831 162 868 265
891 834 204 802 97 790 68 850 201 835 109 819 42
2396 813 78 844 94 848 15 865 218 823 247 820 74 845 274
285 807 45 838 78 831 142
3 818 38
2242 860 223 816 177 808 158 848 45 854 74 826 195
2790 871 172 853 57 818 277 840 94 823 253 865 117 858 136 859 90
1172 848 173 808 95 813 171 840 274
16 850 31 835 39
1548 857 242 835 190 810 110
1380 845 173 843 45 865 62 808 173 869 18 854 289 840 15
2380 812 71 852 289 864 187 822 203 861 29 834 245
2934 866 340 835 273 839 201 846 31 834 103 863 170 857 58
1 835 6
3118 812 63 886 166 874 30 859 302 849 289 864 315 818 225
27 844 57 823 37
2033 880 12 877 50 848 289 869 156 843 74 860 243 881 117
89 838 56 831 118
13 834 62
3750 850 58 895 62 882 19 866 227 890 187 847 242 835 188 893 172
32 844 136
2467 884 235 844 90 873 123 886 111 871 125 818 76 887 82 852 302
3535 876 154 854 243 888 230 894 147 881 21 843 223 826 75 867 143
3118 834 239 879 153 849 29 864 189 863 293 891 258
9 837 79
3086 885 140 850 170 834 85 909 73 866 271 861 293 895 143 913 197 902 27 891 223
3227 897 10 891 42 849 187 901 233 879 132 883 10 861 189 852 315 886 86
2344 877 131 848 62 871 354 840 218 869 201 844 117
2536 885 54 870 40 857 227 895 126 863 271 850 340
1281 876 148 860 143 837 28 826 181 875 97
4014 831 134 875 147 1218 27 1233 131 1232 126 1210 132 1224 203 896 30 872 41 889 287 838 265 1189 56
473 848 18 877 74 854 156 865 201
2 866 40
3840 844 172 884 115 865 354 898 222 877 256 899 8 892 168 903 108 859 125
874 875 320 831 173 837 64 868 41
30 859 123
2 852 30
3829 900 224 837 71 876 136 914 64 868 147 889 253 878 17 867 97 872 320
2069 875 136 900 111 860 154 867 148 894 167
1906 854 50 899 3 905 70 865 131 869 74 871 256 903 116 881 237
1 875 17
809 861 153 864 132 891 94
1 854 12
1904 888 116 877 237 860 21 905 172 894 53 854 117
2 857 19
1 864 10
2380 907 75 859 235 871 115 908 303 887 49 904 34 892 98 886 182 901 27
353 866 54 895 182 863 140
1269 887 30 864 86 901 127 884 182 852 166 859 111
64 884 49 859 82 886 30
578 894 162 881 116 860 230
3641 1232 59 1233 84 1250 15 910 179 875 253 896 41 925 267 868 287 914 226
2970 923 111 895 254 916 274 857 187 919 20 893 164
2601 901 133 902 106 909 179 863 223 879 94 861 258 864 42
625 871 168 898 245 908 44 884 98
1056 857 172 890 164 895 228
3882 922 63 860 147 900 75 876 167 888 162 881 53 911 308 905 105 915 131
4410 863 143 917 157 912 52 893 228 866 126 916 90 890 254 913 337 885 182 920 189 857 62
49 868 30 889 41
1 864 10
3083 908 206 918 235 871 222 903 258 926 58 892 245
1 877 3 871 8
3992 876 111 875 224 894 75 914 263 940 184 927 103 911 343 906 19
4011 932 24 907 372 886 127 884 27 909 244 929 104 891 133 864 233
86 863 27 891 106
3467 935 180 926 89 877 116 924 147 871 108 898 258 905 94 918 136 921 100
2 884 34
1934 915 286 903 94 877 70 924 63 881 172 894 105
1 900 19
1341 929 149 908 335 884 75 901 372
3688 936 155 926 124 934 186 929 132 898 206 907 335 884 303 892 44
1809 863 73 931 38 891 179 929 39 901 244 913 91 928 241
126 914 10 889 179
2633 915 157 894 308 940 120 939 14 941 142 900 343
4 895 52
3859 946 178 917 258 909 91 949 15 930 72 931 39 928 181 863 197 895 337 954 103
2559 875 64 925 180 910 10 900 263 927 269 889 226
2418 894 131 935 54 924 129 938 178 922 48 905 286 911 157 939 191
1045 920 206 923 225 890 274 895 90
2106 920 384 913 258 946 164 895 157
372 898 235 926 74 903 136
2 890 20
2478 917 384 923 121 946 261 947 115 895 189 916 206
12 903 100
17 894 63 915 48
3047 890 111 947 144 960 198 916 225 920 121
1018 905 63 915 129 935 281 903 147
4233 1259 29 889 267 1274 93 1282 17 914 180 927 183 942 388 1290 81 1250 306
2635 935 128 903 89 908 124 934 108 898 58 918 74 955 124 937 14 944 266
3048 914 269 925 183 957 89 942 132 940 203 900 103 959 179 948 70
3151 933 55 961 174 954 137 943 299 929 102 909 241 913 181
3776 958 335 907 149 934 207 928 102 936 130 943 327 901 104 908 132 909 39 945 102
6 913 72
31 909 38 913 39
2 901 24
4 928 55
1664 958 260 944 379 929 207 976 124 926 108 908 186
2018 926 128 924 281 915 54 903 180 938 119 950 130 955 69 952 117
127 929 130 908 155
1 926 14
608 939 180 952 101 935 119 915 178
4178 940 87 953 130 938 180 985 3 941 74 911 14 965 197 981 154 915 191 952 369
3489 951 64 900 184 939 87 927 203 965 34 967 189 956 188 941 109 911 120 953 282 959 121
160 939 74 940 109 911 142
1959 957 361 988 63 1290 119 927 132 925 388 1303 70
3768 975 207 958 96 971 52 928 299 929 327 968 73 961 167 980 66
4272 955 186 989 35 976 39 926 266 958 110 983 172 977 39 950 221 934 379
12 929 102
3921 973 153 949 47 954 194 960 140 982 46 966 381 913 178 961 22 917 164 920 261 964 18
501 923 144 960 58 920 115
32 927 70
6 946 47 913 15
3117 952 186 955 466 935 130 944 221 972 201
8 940 64
3210 939 369 981 91 938 101 984 218 935 117 962 25 972 161 950 186
1675 939 130 940 282 965 379 956 6
609 946 194 928 137 961 96 913 103
1574 926 124 944 186 950 466 935 69 972 73 989 182
60 953 6 940 188
4275 988 268 1001 73 927 89 942 361 967 237 978 74 997 147 999 18 959 176
2485 969 31 934 260 944 110 929 335 976 164 943 96 980 62
1003 967 150 957 176 940 121 927 179
1742 947 58 973 185 923 198 979 73 946 140
2070 966 103 971 187 963 33 954 96 943 167 970 95 946 22 928 174
2 952 25
2 961 33
1 946 18
2555 953 379 939 197 981 90 974 95 940 34 987 298 967 98
1379 982 175 946 381 971 149 961 103 986 199
2122 965 98 974 187 997 123 940 189 959 150 957 237
7 943 73
5 958 31
99 971 91 961 95
1805 970 91 975 100 991 125 986 118 943 52 961 187 966 149
2243 1002 31 989 214 952 161 984 376 955 73 1013 107 950 201
1476 982 64 990 55 993 127 960 185 1000 57 946 153 979 46
1264 965 95 967 187 997 52 1003 123 987 130
1154 980 63 991 245 943 207 971 100 994 260
2438 983 359 994 67 944 39 958 164 934 124 1004 275 980 45
3 944 39
5 957 74
569 973 46 960 73 993 121
402 958 62 943 66 975 63 976 45 994 162
4054 992 51 996 52 1020 30 939 154 1008 330 1031 201 987 190 952 91 995 22 965 90 1019 17 984 490 985 6
3442 1007 66 1005 100 973 64 993 265 1027 100 946 46 1023 137 966 175 1006 14 1016 9 1000 91 990 24 986 154
3229 1015 25 1026 10 1025 102 1004 96 944 172 989 411 1018 27 976 359 1024 84
2821 952 218 981 490 1013 93 995 20 1020 56 972 376
1 939 3 981 6
3941 1005 147 971 118 982 154 1017 234 1007 384 966 199 998 48 991 309 1032 114
2629 1003 135 1011 56 965 298 981 190 1008 223 974 130 992 40
1970 942 63 1332 111 957 268 1303 222 1001 208 1319 69
3932 1025 136 955 182 944 35 972 214 1013 314 1037 40 983 411 1009 32
14 973 55 982 24
1977 1017 119 986 309 994 103 971 125 975 245
47 987 40 981 51
2986 979 121 982 265 1000 165 973 127 1016 76 1014 193
3554 1033 109 1004 329 1017 133 991 103 980 162 1018 12 976 67 975 260
8 984 20 981 22
4 981 52
1320 1012 129 967 123 1001 213 957 147 1003 99 974 52
4 986 48
1 957 18
236 1016 47 982 91 993 165 973 57
3035 1010 38 957 73 1028 163 988 208 1012 341 997 213 1036 70 1350 167 1332 82 1043 24
2 972 31
1193 974 123 1012 89 987 135 1011 170 1021 121 997 99
2559 1022 21 994 329 983 96 1018 455 976 275
363 1007 90 982 100 986 147
1 982 14
2593 1041 22 1005 90 1034 85 1023 144 982 66 986 384 1032 102 1040 129
4066 1029 154 1031 191 1021 114 981 330 987 223 1011 267
2 989 32
2 1001 38
1370 1003 170 987 56 1049 48 1021 329 1008 267 1029 181
1560 1035 59 1003 89 1001 341 1021 237 997 129 1036 16
2970 1020 400 989 314 984 93 1030 147 972 107 1046 38 1037 171
898 1016 216 993 193
2 983 25
2026 982 9 1014 216 1000 47 993 76 1027 113 1034 125 1038 254
1717 1033 350 994 133 1032 110 986 234 991 119
2986 1033 194 983 27 994 12 1045 134 1004 455 1057 159 1026 295
1 981 17
3654 981 30 1048 235 1031 266 1037 148 984 56 1046 53 1077 66 1013 400 1063 145
3663 1012 237 1049 239 1008 114 1003 121 1035 52 1036 174 1044 123 1011 329
1 1004 21
925 1007 144 982 137 1027 60 1034 162
113 983 84 1026 56
1500 1037 309 983 102 1045 164 1026 198 1042 100 989 136
2219 1024 56 1018 295 983 10 1045 180 1042 128 1025 198
403 1016 113 1023 60 1034 22 982 100
661 1036 83 1001 163 1043 176
2194 1048 23 1008 154 1031 122 1055 40 1049 166 1058 76 1011 181 1054 131 1066 84
33 1013 147
2723 1029 122 1053 39 1008 191 1048 321 1020 266 981 201
2027 1033 242 1017 110 986 114 1040 180 1007 102 1060 187 1041 145
4526 1057 117 1018 194 1017 350 1060 145 1032 242 1065 170 994 109 1069 22 1075 90 1039 51
2848 1038 232 1052 26 1027 22 1023 162 1040 131 1016 125 1061 232 1064 10 1056 159 1007 85
27 1012 59 1021 52
1003 1050 164 1043 63 1012 16 1049 43 1028 83 1021 174 1001 70
2961 1025 309 1051 36 1020 148 1013 171 1063 78 1046 28 1070 231 1045 50 989 40
2616 1016 254 1034 232 1059 59 1064 253
4 1033 51
1856 1079 84 1047 8 1032 180 1061 153 1007 129 1034 131 1041 59 1060 241
164 1007 22 1040 59 1032 145
257 1026 128 1025 100 1045 79
2796 1028 176 1384 303 1359 304 1350 228 1050 80 1001 24 1036 63 1332 39
30 1021 123
3541 1076 294 1026 180 1057 192 1025 164 1042 79 1018 134 1068 158 1037 50 1070 142
30 1020 53 1013 38 1037 28
1 1040 8
3795 1080 166 1054 291 1053 33 1031 321 1029 23 1062 6 1071 99 1020 235 1077 180
3443 1058 10 1050 209 1011 48 1066 69 1072 321 1055 6 1029 166 1021 239 1074 19 1036 43
3348 1036 164 1423 208 1072 238 1043 80 2765 29 1049 209 1384 237 2768 56
3 1037 36
2 1034 26
32 1031 39 1048 33
2006 1080 125 1029 131 1082 185 1066 244 1048 291
9 1029 40 1049 6
165 1034 159 1061 85
2911 1033 117 1076 105 1068 123 1086 239 1045 192 1067 24 1065 202 1018 159
21 1029 76 1049 10 1066 40
9 1038 59
2448 1075 155 1081 17 1085 82 2760 31 1033 145 1040 241 1032 187 1079 196
2790 1064 275 1056 85 1034 232 1079 159 1040 153 1084 143 2761 180
1 1048 6
3943 1077 348 1020 145 1070 299 2770 115 1076 88 1037 78 2778 298
2314 1084 321 1034 10 1073 55 1038 253 1061 275
2098 1033 170 2769 112 1086 164 2763 56 1075 194 1057 202
2815 2771 180 2762 88 1054 244 1058 40 1072 251 1029 84 1078 11 1049 69 1082 205
2 1057 24
135 1057 123 1045 158
1 1033 22
1566 1063 299 1076 136 1045 142 1037 231
12 1048 99
2960 1050 238 1066 251 2765 208 2762 335 1049 321
10 1084 5 1064 55
1 1049 19
1157 1065 194 1033 90 1060 155 2760 234 2769 14
4462 1057 105 2784 98 1063 88 1045 294 2778 178 2764 56 2770 123 2769 146 1086 161 1070 136
2434 1020 66 1063 348 1048 180 1080 10 2778 23 2767 289 1082 144
1 1066 11
4211 2761 285 1060 196 2760 142 2766 20 2779 296 1083 81 1061 159 2787 131 2792 37 2780 108 1085 71 1040 84
742 1054 125 1048 166 1077 10 1082 177
1 1060 17
3637 2775 94 1080 177 2771 107 2774 298 1077 144 1066 205 2767 80 1054 185
6 1079 81
2929 1061 143 2776 252 1064 321 2772 13 2761 153 2783 103 1073 5
271 1060 82 2760 106 1079 71
2717 2769 369 2763 4 1057 239 1076 161 1065 164
3053 1097 158 726 42 708 104 1110 125 1111 91 1093 42 1112 67 1089 44 729 45 709 366 694 86
3357 1106 163 1099 145 727 88 1118 188 1105 190 713 262 723 284
2213 693 30 1087 44 731 191 1114 24 1095 13 1112 109 709 433 1102 295
817 726 236 1097 121 1098 164 1091 61 695 59
1657 695 85 711 185 719 156 1104 125 1090 61 1103 59 1098 168
143 719 100 702 16 723 103
4 1087 42
3694 1129 45 1108 223 1101 129 716 67 1096 326 712 188 715 128 1123 214
9 1089 13 731 28
2542 1120 109 1094 326 1123 122 716 148 731 184 1102 125
1779 1122 16 1090 121 726 29 1098 102 1116 125 1117 79 1110 47 1087 158
1324 1097 102 1090 164 1104 182 1116 68 1091 168
203 1088 145 1105 56 727 111
1585 1106 102 1103 265 719 226 1113 218 1121 13 723 115
567 715 179 1094 129 1108 127
3101 1124 103 1109 22 1114 100 1130 16 1096 125 1112 114 1089 295 731 182 1131 81 1120 254
3508 1104 358 1100 265 1143 157 1136 83 719 121 1113 92 1137 119 1091 59
3149 1139 50 1125 51 1136 89 1116 129 1135 98 1091 125 1098 182 1103 358
2723 1118 150 721 139 1088 190 727 90 1119 147 1107 60 1099 56 1132 103 1128 175
2580 1088 163 1100 102 1127 137 1118 111 1113 413 723 291
84 1105 60 727 15 721 64
3415 1094 223 1134 85 747 149 1101 127 1126 339 1115 27 1129 87 750 200 715 69
1 1102 22
687 1097 47 1111 45 1087 125 1117 111 1112 85
31 1110 45 1087 91
3067 1110 85 1089 109 1124 190 1102 114 1133 250 1117 206 1131 159 1087 67 1146 99
3579 1127 46 1143 210 1141 118 1106 413 1138 34 1137 27 1153 209 1103 92 1100 218
13 1089 24 1102 100
15 1108 27 750 35
3146 1104 129 1117 185 1098 68 1133 162 1097 125 1135 189 1139 272 1122 50 1156 33
1310 1097 79 1112 206 1110 111 1133 70 1116 185
873 1106 111 1127 107 1105 150 1088 188 1132 42
1971 721 162 2155 25 1128 294 2118 84 2134 201 1105 147
3951 1130 102 1155 260 1123 227 1145 237 1096 109 1131 217 1102 254 1140 67
1 1100 13
15 1116 50 1097 16
2144 1142 111 1120 227 1129 183 1094 214 1145 138 1096 122
308 1112 190 1102 103
3 1104 51
3172 1154 219 773 449 1134 36 1129 108 747 147 1108 339
1935 1144 225 1113 46 1106 137 1141 103 1132 83 1118 107
2924 1160 107 1152 159 2134 134 1119 294 1144 70 1159 114 1105 175 2167 56 1132 99 1149 25
2771 1094 45 1142 99 1126 108 1123 183 1163 159 1108 87 1154 151 1134 54 1147 12 1145 157
100 1131 66 1102 16 1120 102
1896 1112 159 1130 66 1120 217 1155 169 1146 143 1162 78 1102 81
635 1128 99 1118 42 1105 103 1127 83 1144 68
1871 1148 57 1116 162 1117 70 1150 186 1156 11 1146 109 1112 250
98 1129 54 1108 85 1126 36
641 1116 189 1104 98 1139 227
1073 1103 83 1104 89 1151 211 1143 145 1139 262
31 1103 119 1113 27
4 1113 34
3865 1172 167 1151 107 1164 254 1135 227 1136 262 1150 49 1104 50 1157 25 1156 99 1116 272 1176 128
7 1120 67
404 1127 103 1113 118 1144 56 1153 151
79 1123 111 1129 99
3792 1151 203 1168 199 1136 145 1113 210 1103 157 1153 114 1158 18
2568 1153 164 1128 70 1160 291 1127 225 1132 68 1167 104 1141 56
2036 1171 30 1123 138 1120 237 1155 232 1129 157 1163 84
2472 1150 398 1112 99 1162 243 1131 143 1133 109 1173 137
1 1129 12
68 1150 39 1133 57
2 1160 10 1128 25
4393 1156 204 1166 67 1139 49 1148 39 1172 159 1183 147 1173 136 1146 398 1133 186 1188 119
3072 1164 191 1143 203 1139 107 1168 265 1136 211 1178 145
1983 2134 109 1128 159 2167 96 1159 264 2188 148 2173 157 2161 45
3236 1141 151 1168 124 1167 186 1179 154 1144 164 1143 114 1180 128 1113 209
4441 1126 219 1129 151 773 36 1189 228 1163 332 1200 1 1170 71 1184 154 1177 16 1161 288
3515 1187 88 1171 76 1145 232 1181 126 1165 141 1120 260 1162 233 1131 169
468 1150 204 1139 99 1133 11 1116 33
2 1139 25
1 1143 18
1106 1128 114 1152 264 1160 308 2188 101
3261 1167 94 1175 82 1144 291 1159 308 1128 107 1174 326 1149 10 2188 27
2452 807 201 1189 174 773 97 1169 61 1154 288 838 89
2164 1187 125 1173 262 1165 33 1131 78 1146 243 1155 233
1976 1184 294 1171 89 1154 332 1129 159 1145 84
650 1176 71 1139 254 1178 48 1151 191
288 1187 193 1162 33 1155 141
27 1150 67
1678 1153 186 1197 14 1174 219 1191 45 1160 94 1179 183 1144 104 1193 179
3596 1190 141 1151 265 1143 199 1194 211 1180 168 1182 34 1153 124 1178 152
114 807 62 1161 61
9 1154 71
464 1184 69 1145 30 1181 79 1163 89 1155 76
1426 1139 167 1176 177 1150 159 1183 167
2657 1162 262 1187 359 1188 233 1150 136 1203 233 1192 103 1146 137 1205 18
1899 1160 326 1175 210 1167 219 1191 199 1185 29
1802 1198 319 1160 82 1211 43 2188 118 1191 23 1174 210 2213 129 2204 131
3246 1164 71 1196 79 1172 177 1139 128 1183 118 1199 218 1201 333 1178 264
1 1154 16
1864 1201 74 1204 126 1168 152 1176 264 1164 48 1194 138 1151 145 1196 26
3523 1167 183 1190 163 1216 12 1214 77 1213 178 1153 154 1193 180 1180 193 1186 46
1167 1153 128 1190 233 1168 168 1179 193
1632 1184 119 1171 79 1187 177 1195 290 1155 126
3 1168 34
1463 1176 118 1172 167 1199 114 1206 10 1150 147 1188 176
2746 1202 139 1195 144 1200 168 1163 294 1171 69 1181 119 1154 154
2 1174 29
3 1179 46
3630 1162 125 1181 177 1155 88 1165 193 1203 139 1217 227 1205 27 1173 359 1195 184 1220 1
1804 1183 176 1173 233 1150 119 1192 83 1199 270 1203 107
2835 1210 181 1154 228 838 195 1161 174 1224 68 1200 298 1207 31 868 56
3315 1180 233 1179 163 1194 150 1215 20 1231 20 1168 141 1204 245 1213 233 1223 150
1202 1167 45 1175 23 1174 199 1198 179 1193 146 1209 92
153 1188 83 1173 103
2253 1167 179 1191 146 1209 247 1214 113 1179 180 1227 32
631 1190 150 1204 86 1178 138 1168 211
3083 1187 184 1202 90 1212 286 1181 290 1184 144 1217 117
34 1178 26 1176 79
1 1167 14
3585 1175 319 1209 186 1211 47 1226 87 1228 176 1191 179 2247 104 2213 135
3263 1221 452 1183 114 1201 176 1203 170 1176 218 1188 270 1206 42
2641 1233 42 1202 11 1208 352 1189 298 1154 1 1224 171 1184 168
2861 1178 74 1222 130 1204 251 1176 333 1225 135 1221 101 1199 176
392 1184 139 1212 102 1208 63 1200 11 1195 90
3665 1221 148 1187 139 1199 170 1173 233 1217 258 1188 107 1236 263 1237 67
2885 1223 163 1222 297 1238 73 1194 86 1190 245 1178 126 1231 16 1219 19 1201 251
8 1187 27 1173 18
9 1199 42 1183 10
2 1189 31
2224 1229 222 1202 63 1212 371 1200 352 1233 87 1245 177
2455 1234 26 1191 92 1235 106 1198 186 1227 115 1193 247 1226 184
291 838 74 1189 181 868 132
54 1175 43 2213 56 1198 47
2130 1229 271 1202 102 1195 286 1208 371 1217 25
1621 1214 209 1190 233 1230 198 1179 178
1374 1193 113 1234 76 1179 77 1213 209 1230 96 1216 1 1227 165
1 1190 20
1 1214 1 1179 12
2828 1229 178 1187 227 1195 117 1212 25 1203 258 1220 14 1237 187
2 868 27
1 1204 19
1 1187 1 1217 14
2693 1236 43 1241 202 1201 101 1203 148 1199 452 1225 247 1242 116
2450 1238 385 1254 123 1225 291 1204 297 1201 130
252 1190 150 1204 163 1231 25
543 868 203 1200 171 1189 68 1233 91
1688 1221 247 1201 135 1254 123 1241 54 1242 94 1222 291
684 1235 124 1209 184 1198 87 1228 148
483 1234 179 1193 32 1214 165 1209 115
2463 1252 83 1247 16 2247 8 1198 176 1235 183 1248 180 1226 148 1243 186
3123 1217 178 1257 7 1245 494 1212 271 1237 201 1246 14 1208 222
3209 1251 326 1214 96 1255 109 1213 198 1234 244 1244 189 1231 65
231 1204 16 1230 65 1223 25 1238 23 1244 17 1190 20
185 889 59 868 126
2293 1208 87 889 84 1240 110 1250 266 1200 42 868 131 1263 41 1245 271 1224 91
1652 1230 244 1251 50 1256 28 1209 26 1214 76 1235 226 1227 179 1239 75
2141 1234 226 1209 106 1226 124 1228 183 1248 161 1256 251
4245 1270 265 1237 231 1203 263 1221 43 1260 158 1264 102 1253 69 1272 35 1241 241
4006 1217 187 1236 231 1229 201 1261 131 1203 67 1275 171 1272 109 1257 163 1260 172
2376 1204 73 1244 321 1222 385 1267 65 1231 23 1254 25 1258 181
7 1234 75
26 1233 110
2869 1249 77 1266 166 1225 54 1242 252 1273 35 1221 202 1270 32 1254 130 1236 241 1265 117
491 1221 116 1241 252 1225 94
1406 2261 87 2270 131 1228 186 2247 169 1252 112
2615 1230 189 1280 169 1255 225 1231 17 1238 321 1271 97 1258 229
4321 1233 271 1257 160 1229 494 1268 76 1208 177 1274 135 1276 188 1263 317
1 1229 14
1 1228 16
3177 1252 296 1228 180 1279 112 1256 272 1284 83 1235 161 1289 44
17 1241 77
2648 1233 266 1263 127 889 15 1274 199 925 306
2003 1230 326 1255 115 1271 225 1234 50 1256 291
2113 2289 140 1243 112 2270 77 1228 83 1248 296 1279 169
6 1236 69
1659 1222 123 1262 92 1267 166 1265 60 1238 25 1266 105 1225 123 1241 130
1320 1271 186 1230 109 1251 115 1244 225
3813 1248 272 1286 168 1271 152 1251 291 1284 173 1235 251 1234 28 1269 106 1285 154 1278 15
3413 1275 31 1277 139 1261 164 1291 244 1245 160 1276 130 1229 7 1272 156 1237 163 1268 140 1274 324 1297 92
1369 1267 254 1244 229 1280 171 1238 181
2 925 29
885 1237 172 1236 158 1272 203
94 1237 131 1257 164
23 1254 92
673 1274 94 1233 41 1245 317 1250 127
29 1236 102
189 1254 60 1241 117 1266 99
3989 1299 8 1241 166 1273 221 1288 216 1305 89 1292 20 1293 117 1267 238 1254 105 1265 99
2842 1266 238 1238 65 1298 64 1288 207 1280 6 1254 166 1258 254
74 1257 140 1245 76
20 1256 106
1574 1304 74 1273 183 1287 273 1236 265 1272 210 1241 32
2658 1295 142 1281 15 1280 128 1285 102 1244 97 1251 225 1255 186 1256 152
3845 1275 140 1257 156 1270 210 1237 109 1260 203 1236 35 1304 133 1297 245
1221 1287 123 1283 38 1241 35 1270 183 1266 221 1293 75
4273 1263 94 1245 135 1250 199 1276 31 925 93 1257 324 1303 354 1290 124 1291 185 1308 10 1311 148
153 1272 140 1237 171 1257 31
413 1245 188 1257 130 1274 31
13 1257 139
1 1256 15
1057 1294 99 1248 112 1284 190 2289 151 1252 169 1296 18
2993 1258 171 1271 128 1244 169 1312 25 1267 6 1300 68 1306 233 1313 177 1298 204 1295 103
1 1271 15
1 925 17
3 1273 38
3225 1314 96 1294 78 1279 190 1289 33 1248 83 1286 75 1301 381 1296 181 1256 173
1815 1310 139 1295 103 1307 228 1271 102 1301 55 1302 23 1286 125 1256 154
519 1285 125 1301 137 1256 168 1284 75
1139 1304 215 1270 273 1273 123 1293 205
1930 1292 18 1305 226 1267 207 1266 216 1298 299 1313 92
18 1248 44 1284 33
828 1303 148 925 81 1274 124 942 119
1325 1274 185 1297 153 1309 149 1257 244 1311 48
6 1266 20 1288 18
2817 1317 145 1322 167 1287 205 1273 75 1299 90 1305 322 1304 137 1266 117
3807 2305 93 2338 234 1314 157 2323 173 1279 99 1331 185 2289 306 1284 78 1296 105
858 1306 70 1271 142 1280 103 1307 87 1285 103
211 1279 18 1294 105 1284 181
3582 1257 92 1304 310 1272 245 1339 119 1291 153 1322 32 1344 34 1309 326 1340 136
1589 1267 64 1312 107 1280 204 1313 96 1288 299
36 1266 8 1293 90
29 1280 68
3095 1285 55 1310 402 1286 137 1284 381 1328 314 1314 48
24 1285 23
3534 988 222 1332 171 1274 354 1336 110 942 70 1290 148 1311 179 1321 64
3109 1293 137 1297 310 1287 215 1325 2 1272 133 1270 74 1322 382
2634 1326 64 1313 21 1266 89 1320 55 1317 53 1318 239 1293 322 1288 226 1323 67
1318 1295 70 1307 245 1280 233 1313 36
3586 1295 87 1324 355 1285 228 1310 177 1349 232 1347 73 1313 98 1338 20 1335 38 1306 245 1333 50
1 1274 10
1673 1297 326 1291 149 1311 240 1339 130
1948 1301 402 1285 139 1307 177 1324 321 1328 70
2779 1315 42 1329 47 1336 41 1274 148 1303 179 1334 180 1339 122 1291 48 1337 70 1309 240
148 1280 25 1313 49 1298 107
3143 1330 249 1298 96 1318 269 1280 177 1316 122 1327 66 1347 13 1312 49 1338 24 1305 21 1306 36 1288 92 1307 98
1214 1341 96 1284 96 1301 48 1294 157 1331 79 1328 111
4 1311 42 1339 10
20 1313 122
771 1305 53 1322 26 1326 208 1320 41 1293 145
3281 1342 166 1327 152 1330 199 1343 44 1313 269 1326 94 1305 239 1346 249
13 988 69
31 1317 41 1305 55
6 1303 64 1332 6
4167 1297 32 1361 142 1304 382 1363 181 1340 262 1317 26 1293 167 1325 35 1326 239
5 1305 67
3603 1310 321 1349 94 1307 355 1366 60 1357 233 1368 116 1335 9 1328 127
3 1322 35 1304 2
3568 1342 70 1364 147 1327 25 1353 205 1361 142 1318 94 1322 239 1365 7 1305 64 1317 208
92 1318 152 1313 66 1326 25
2413 1310 70 1301 314 1357 47 1341 279 1324 127 1358 87 1314 111
3 1311 47
1978 1347 335 1352 6 1346 87 1369 179 1313 249 1318 199
2248 1294 185 1341 148 2338 205 1354 421 1314 79
2518 988 111 1355 115 1001 82 1303 171 1351 27 1336 185 1043 39 1350 205 1359 250 1321 6
12 1307 50
2185 1339 166 1337 97 1356 43 1311 180 1355 186 1336 203 1362 124
13 1324 9 1307 38
1216 1355 128 1311 41 1334 203 1303 110 1332 185
115 1311 70 1334 97 1339 68
20 1313 24 1307 20
3156 1340 120 1362 250 1337 68 1379 1 1348 12 1360 205 1372 210 1309 130 1334 166 1315 10 1311 122 1297 119 1371 16
1110 1360 100 1297 136 1363 36 1339 120 1322 262
2666 1358 426 1331 148 1345 19 1328 279 1354 201 1314 96
349 1353 68 1346 97 1318 166 1326 70
2 1318 44
2 1297 34
1 1341 19
2533 1353 191 1381 82 1342 97 1369 214 1330 87 1318 249
2172 1330 335 1349 301 1369 214 1313 13 1386 18 1307 73 1366 238 1393 59 1352 3
1 1339 12
1171 1366 179 1347 301 1307 232 1324 94
875 1332 205 1001 167 1043 228
2 1332 27
1 1347 3 1330 6
1887 1346 191 1381 147 1326 205 1342 68 1364 183 1365 5
4099 1358 129 2338 186 2389 149 1387 143 1331 421 1341 201 2397 192 2378 146 2380 8
2767 1332 115 1382 206 1336 128 1362 141 1334 186 1359 315 1370 148 1388 115 1371 113
3 1334 43
1869 1324 233 1367 91 1378 133 1368 241 1376 11 1328 47 1358 209
4534 1396 272 1341 426 1328 87 1357 209 1367 17 1401 29 1354 129 1406 65 1387 129 1378 311
1639 1355 315 1043 304 1332 250 1388 103 1384 116
1118 1340 100 1372 64 1373 182 1374 138 1363 110 1339 205
3684 1374 132 1364 88 1322 142 1389 26 1326 142 1380 114 1373 70 1400 102 1363 144 1390 378 1375 12 1411 97
1822 1355 141 1339 250 1334 124 1382 156 1379 92 1397 52 1371 94
732 1361 144 1340 36 1360 110 1322 181 1374 77
1880 1353 183 1385 174 1365 10 1361 88 1326 147 1381 29 1390 118 1380 77
4 1353 5 1364 10 1326 7
3140 1398 232 1349 179 1324 60 1377 220 1393 335 1368 127 1347 238 1414 119
21 1357 91 1358 17
1351 1366 127 1398 140 1377 128 1324 116 1357 241 1378 105
3613 1330 179 1381 220 1394 111 1383 80 1393 338 1347 214 1346 214
35 1355 148
42 1339 16 1379 7 1355 113 1362 94
817 1339 210 1373 204 1360 64 1379 129
3182 1360 182 1400 212 1410 104 1372 204 1361 70 1395 27 1374 90 1379 280
382 1361 132 1373 90 1360 138 1363 77
1 1361 12
1 1357 11
877 1366 220 1398 130 1368 128
2798 1357 133 1398 233 1368 105 1406 256 1358 311
2350 1382 212 1362 92 1397 37 1373 280 1339 1 1405 13 1412 173 1410 138 1372 129 1371 7
131 1361 114 1364 77
3576 1364 29 1403 16 1385 233 1413 117 1346 82 1393 48 1407 105 1353 147 1417 154 1391 15 1399 135 1394 102 1369 220
2764 1355 206 1397 89 1402 212 1412 198 1362 156 1416 131 1388 90 1379 212
13 1369 80
3164 1050 237 1424 26 1404 220 1423 187 1392 40 1043 303 1359 116 1388 113
2785 1415 165 1399 215 1364 174 1381 233 1413 142 1390 270
1 1347 18
811 1354 143 1396 128 1358 129 2397 121
1447 1355 115 1359 103 1404 175 1402 94 1384 113 1382 90
2 1361 26
2004 1361 378 1385 270 1415 77 1364 118 1411 110
1 1381 15
3 1384 40
2726 1414 250 1408 12 1369 338 1381 48 1366 335 1407 113 1347 59
52 1369 111 1381 102
2 1373 27
1816 1358 272 1406 93 2397 131 1409 171 1418 120 2418 33 1387 128
83 1379 37 1382 89 1362 52
4202 1377 130 1378 233 1426 267 1406 125 1366 232 1422 207 1368 140 1414 178
1095 1413 213 1385 215 1381 135
1038 1373 212 1410 119 1361 102 1411 122
2 1358 29
1199 1416 43 1404 105 1388 94 1420 122 1382 212
1 1381 16
2889 1423 340 1384 220 1402 105 3121 120 1420 310 1419 35 1388 175
1 1379 13
4277 1358 65 1378 256 1422 84 1409 67 1398 125 3124 80 1418 142 3115 135 1426 184 1396 93 3125 86
2708 1417 145 3123 180 1381 105 1413 145 3128 215 1393 113 3120 77 1414 349
1 1393 12
247 1406 67 1418 90 1396 171
3184 1400 119 1379 138 3127 273 1373 104 1411 520 1412 164 3119 141 3114 31
2831 1400 122 3114 51 1390 110 1361 97 1415 193 1410 520
2467 1410 164 3119 184 1416 143 1420 293 1425 16 3130 31 1382 198 1379 173
4028 1417 191 1399 213 3122 122 1415 178 1385 142 3120 37 3126 67 3116 96 1381 117 3123 175 3114 124 1407 145
3949 3117 15 1393 250 1366 119 3118 375 1426 98 1421 16 1398 178 1407 349 3113 47 3128 179
1692 1385 165 1411 193 1413 178 3114 255 1390 77
187 1402 43 1382 131 1412 143 1420 74
717 1407 145 1381 154 1413 191
3605 4165 97 2397 58 3115 311 1409 90 4152 138 1396 120 1406 142 2432 214
3 1404 35
3486 1416 74 3121 321 1425 10 3130 92 1412 293 1404 310 1402 122 3133 143
1 1414 16
288 1426 21 1398 207 1406 84
3472 1050 208 3121 207 3138 203 1404 340 3112 11 1384 187 2768 220
2 1384 26
4 1420 10 1412 16
2922 3124 153 1398 267 3129 37 1406 184 3118 148 1414 98 3117 99 1422 21 3135 133 3131 77
8 1428 82
3671 1461 149 1427 82 387 362 423 40 1466 335 1429 396
1650 1428 396 1461 33 1430 278
3984 1431 249 1461 265 1470 51 1446 28 1449 12 1429 278 1455 103 1465 133
2068 1449 44 1455 133 1430 249 1432 151
3046 1453 151 1431 151 1433 201 1447 241 1459 143 1455 262 1434 85
145 1432 201
3449 1447 273 1432 85 1435 153 1458 69 1467 201
2626 1460 55 1434 153 1436 227 1445 47 1458 204
3764 1438 71 1437 94 1439 106 1435 227 1460 40 1456 110 1450 465
29 1436 94
164 1436 71 1439 56
2449 1451 85 1436 106 1438 56 1456 263 1440 114
1944 1439 114 1452 197 1451 147 1441 164
3097 1454 164 1468 82 1452 174 1475 31 1440 164 1442 221
1999 1443 261 1441 221 1454 154
3800 1483 79 1454 326 1469 66 1444 138 1478 226 1442 261 1457 50 1448 429 1476 13
413 1443 138 1448 143
4 1435 47
2 1430 28
3049 1467 82 1434 273 1481 148 1432 241 1471 133 1459 186
3477 1463 105 1443 429 1444 143 1783 392 1793 88 1761 265 1469 96
21 1430 12 1431 44
2795 1464 148 1436 465 1477 14 1474 195 1460 119 1482 87 1456 84
2556 1452 163 1472 142 1479 188 1468 96 1456 220 1440 147 1439 85
2150 1451 163 1468 312 1441 174 1440 197 1480 69
24 1432 151
1843 1475 59 1441 164 1483 71 1442 154 1443 326 1462 28
1546 1459 142 1432 262 1431 133 1465 123 1430 103 1471 171
2069 1439 263 1451 220 1464 141 1450 84 1436 110 1472 65
6 1443 50
3742 1460 76 1493 65 1495 174 1434 69 1435 204 1505 58 1474 278 1501 182 1467 281
1014 1432 143 1447 186 1471 129 1455 142
708 1450 119 1436 40 1474 106 1458 76 1435 55
2624 1466 244 1487 19 1470 39 1489 200 1428 149 1465 185 1471 9 1430 265 1429 33
2 1454 28
9 1448 105
892 1456 141 1482 151 1472 189 1450 148
1064 1471 288 1455 123 1461 185 1430 133
2846 1491 39 1486 72 1500 125 1484 48 1428 335 1490 137 1489 65 423 213 1461 244
2569 1499 108 1458 281 1488 43 1473 69 1481 204 1495 11 1434 201 1447 82
1192 1480 193 1451 96 1452 312 1485 48 1479 127 1475 211 1441 82
2352 1494 181 1809 71 1783 312 1448 96 1476 1 1503 105 1443 66 1835 24 1478 183
16 1430 51 1461 39
3794 1465 288 1461 9 1488 374 1489 283 1447 133 1506 124 1481 86 1459 129 1455 171
3135 1464 189 1516 43 1479 220 1451 142 1482 497 1456 65 1485 156
7 1467 69
2803 1460 106 1458 278 1450 195 1497 273 1482 218 1501 56 1477 9
2860 1468 211 1502 104 1504 208 1483 160 1454 59 1511 11 1514 67 1441 31 1480 362 1496 145
2 1478 11 1469 1 1443 13
2 1474 9 1450 14
1285 1443 226 1494 68 1496 105 1469 183 1483 135 1476 11
1369 1451 188 1468 127 1498 38 1472 220 1485 298
1767 1468 193 1475 362 1452 69 1502 138 1485 179
1174 1488 238 1467 204 1447 148 1492 86 1471 86
3494 1450 87 1472 497 1464 151 1513 334 1497 177 1516 57 1474 218
860 1454 71 1478 135 1475 160 1443 79 1496 102
7 1466 48
3461 1502 192 1468 48 1498 91 1516 52 1515 215 1472 156 1479 298 1480 179 1522 61
51 1466 72 423 77
1 1461 19
4518 1471 374 1506 22 1510 38 1481 238 1499 203 1518 315 1467 43 1508 269 1492 304 1509 46
2746 1507 38 1461 200 1471 283 1506 256 1466 65 1500 222
2486 471 319 423 211 445 124 1466 137 1500 282 1538 303 1520 94
3 1466 39
355 1481 86 1488 304
7 1458 65
1539 1496 57 1503 206 1504 139 1469 181 1478 68
984 1501 227 1499 258 1458 174 1467 11
629 1494 57 1504 171 1475 145 1478 105 1483 102
2376 1525 92 1474 273 1524 236 1482 177 1513 151 1501 315
61 1485 91 1479 38
3500 1518 129 1495 258 1488 203 1527 159 1532 147 1529 41 1509 15 1467 108 1501 150
3487 1507 5 471 257 1512 17 1520 187 1489 222 1490 282 1506 117 1466 125
2950 1524 136 1474 56 1495 227 1458 182 1523 15 1505 70 1499 150 1527 12 1497 315
1213 1514 197 1480 138 1475 104 1485 192 1515 69
3172 1865 69 1528 130 1494 206 1504 64 1469 105 1835 412 1521 82
2571 1511 72 1503 64 1517 18 1494 139 1514 127 1496 171 1521 413 1475 208
30 1501 70 1458 58
3221 1471 124 1500 117 1526 34 1488 22 1508 305 1489 256 1520 252 1518 112 1533 149
7 1489 38 1500 5
1099 1506 305 1488 269 1518 170
19 1499 15 1488 46
2 1488 38
10 1504 72 1475 11
1 1500 17
3627 1519 249 1535 78 1536 239 1482 334 1516 214 1497 151 1525 194 1522 38
2267 1515 257 1475 67 1517 30 1502 197 1504 127 1530 164 1521 176
2483 1485 215 1522 281 1543 261 1514 257 1530 108 1502 69
1203 1522 171 1485 52 1482 57 1513 214 1472 43
3 1504 18 1514 30
3736 1499 129 1506 112 1542 19 1488 315 1508 170 1541 136 1529 409 1533 89
205 1536 8 1513 249
1718 1538 114 1506 252 1533 103 1539 287 1490 94 1500 187 1531 38
2668 1528 183 1530 233 1503 82 1504 413 1534 210 1514 176
2576 1515 281 1547 74 1543 93 1485 61 1513 38 1516 171 1536 165
1 1501 15
1455 1525 230 1501 136 1497 236 1527 401
2325 1524 230 1544 154 1536 214 1527 21 1556 106 1535 57 1513 194 1497 92
2 1506 34
2680 1532 138 1525 21 1545 149 1501 12 1499 159 1544 199 1524 401
2812 1552 210 1865 11 1534 279 1503 130 1549 157 1565 66 1521 183 1540 256
3271 1541 279 1532 291 1499 41 1550 228 1518 409
1359 1534 277 1543 141 1515 108 1521 233 1514 164
2 1520 38
2129 1499 147 1545 163 1527 138 1550 101 1559 26 1529 291
1087 1539 132 1518 89 1541 97 1520 103 1506 149
1996 1549 212 1521 210 1543 119 1530 277 1537 13 1528 279
69 1525 57 1536 50 1513 78
2115 1547 26 1513 239 1557 118 1546 57 1535 50 1551 85 1556 85 1525 214 1522 165 1519 8
1 1534 13
2956 471 82 498 160 482 37 1539 58 518 262 1520 114 1490 303 1548 120
1667 1541 55 1538 58 1533 132 1520 287 1553 90 1548 203
519 1865 104 1565 75 1528 256
3127 1529 279 1550 122 1539 55 1533 97 1518 136 1553 397 1569 163 1555 68
1 1518 19
3379 1534 119 1563 186 1530 141 1522 93 1554 19 1558 146 1547 282 1549 32 1515 261
2991 1525 154 1566 412 1545 404 1527 199 1561 21 1556 137 1562 14
4089 1527 149 1544 404 1567 193 1571 14 1559 6 1532 163 1566 107 1550 84 1560 12
4 1536 57
1699 1543 282 1568 172 1536 26 1557 218 1522 74 1551 29 1563 115
3477 1572 196 518 216 1539 203 1578 279 1587 86 1538 120 1553 283
2522 1534 212 1558 312 1543 32 1552 208 1528 157
2785 1545 84 1532 101 1567 227 1581 17 1541 122 1529 228 1576 44 1569 106
284 1536 85 1557 103 1547 29
2057 1574 178 1558 30 1528 210 1549 208 1565 238
3178 1541 397 1539 90 1578 122 1548 283 1569 282
2 1543 19
15 1541 68
1729 1525 106 1544 137 1566 116 1570 159 1561 9 1536 85 1557 109
3196 1547 218 1570 108 1577 154 1551 103 1573 96 1536 118 1556 109 1568 196
2962 1563 365 1543 146 1552 30 1583 104 1574 142 1549 312 1575 53
2 1532 26 1545 6
1 1545 12
2 1556 9 1544 21
1 1544 14
3034 1585 265 1547 115 1583 226 1568 332 1558 365 1543 186 1575 13
439 542 148 518 205 527 124
3559 1928 113 1586 22 1540 75 1574 97 1528 66 1888 13 1865 332 1914 232 1552 238
4266 1570 217 1544 412 1579 25 1567 114 1545 107 1588 295 1594 187 1556 116
1858 1591 53 1581 220 1550 227 1588 147 1566 114 1545 193
3987 1547 172 1563 332 1596 316 1585 257 1577 217 1582 86 1557 196
4308 1592 58 1580 22 1550 106 1584 85 1581 26 1541 163 1553 282 1595 362 1578 102 1576 332
2179 1573 50 1566 217 1557 108 1556 159 1594 63 1577 309
1 1545 14
1096 1589 55 1587 138 542 145 1548 196 518 82
53 1557 96 1570 50
2721 1552 178 1586 321 1558 142 1593 73 1565 97 1583 159 1599 113
7 1558 53 1563 13
1562 1595 88 1569 332 1550 44 1581 362 1604 128
3482 1568 217 1596 61 1557 154 1601 360 1570 309 1594 158
1461 1569 102 1592 143 1587 144 1553 122 1548 279
2 1566 25
2 1569 22
3177 1550 17 1569 26 1588 344 1567 220 1612 248 1576 362 1604 199 1591 16
4 1568 86
1851 1563 226 1574 159 1585 93 1558 104 1606 218 1602 104 1599 134 1609 31
11 1569 85
3362 1608 171 1597 36 1568 257 1627 174 1618 51 1583 93 1596 156 1609 29 1563 265 1606 178
3882 1915 204 1914 206 1942 30 1565 22 1593 53 1574 321 1957 55 1599 177 1628 308 1928 122 1623 19
1462 1603 103 1578 144 1548 86 1589 171 1592 145 1572 138 1600 28
3124 1594 77 1566 295 1617 16 1567 147 1612 169 1610 17 1626 45 1581 344 1613 187
3997 542 190 1607 50 554 360 1619 208 1587 171 1572 55 1603 115 1625 37 1600 102 1622 138
9 542 59
12 1581 16 1567 53
2042 1578 143 1598 103 1603 219 1587 145 1569 58 1595 297 1621 60
28 1586 53 1574 73
3840 1588 77 1605 98 1638 143 1601 441 1635 162 1570 63 1613 394 1577 158 1566 187
3711 1569 362 1629 102 1621 287 1592 297 1630 85 1620 87 1614 87 1604 77 1576 88
3176 1601 194 1608 107 1624 124 1577 61 1568 316 1618 271 1585 156 1616 60
2 1585 36
34 1592 103
1527 1586 177 1583 134 1574 113 1606 94 1623 197
107 1587 28 1603 46 1589 102
3201 1596 194 1577 360 1624 217 1635 159 1594 441 1616 1
18 1583 104
1263 1619 104 1587 103 1621 144 1592 219 1600 46 1589 115
1090 1612 153 1581 199 1614 248 1576 128 1595 77
35 1594 98
2179 1623 203 1627 126 1609 114 1599 94 1585 178 1583 218 1611 33 1631 40
4 1589 50
385 1596 107 1618 141 1585 171
98 1585 29 1583 31 1606 114
1 1588 17
2 1606 33
3539 1588 169 1633 95 1604 153 1614 101 1615 11 1629 190 1626 219 1581 248
2840 1636 88 1626 223 1638 66 1588 187 1594 394
1463 1612 101 1604 248 1620 109 1629 166 1595 87
1 1612 11
7 1601 1 1596 60
1 1588 16
3440 1627 348 1585 51 1649 55 1624 309 1608 141 1643 263 1596 271 1641 46
2729 1632 43 1589 208 1625 127 1603 104 1621 19 1630 128 1640 330 1622 77 602 117
71 1595 87 1614 109
1222 1630 290 1592 60 1619 19 1595 287 1603 144
313 1619 77 1625 96 1589 138
2167 1639 150 1631 199 1628 178 1599 197 1586 19 1606 203
2871 1652 150 1596 124 1618 309 1601 217 1635 293 1649 173
826 1622 96 1589 37 554 169 602 81 1619 127
2617 1588 45 1636 131 1633 154 1634 15 1613 223 1629 37 1648 33 1646 236 1612 219
2184 1618 348 1585 174 1606 126 1631 257 1643 133
2438 1957 498 1989 71 1623 178 1586 308 1651 65 1639 169
3901 1637 160 1633 92 1630 32 1614 166 1648 162 1595 102 1626 37 1647 327 1612 190
2924 1640 72 1637 134 1621 290 1619 128 1665 39 1595 85 1645 453 1629 32 1647 140 1659 41 1658 34
3649 1657 169 1655 50 1627 257 1639 89 1606 40 1650 429 1643 246 1623 199
3 1619 43
357 1646 137 1629 92 1626 154 1612 95
1 1626 15
2686 1594 162 1601 159 1667 162 1652 167 1662 87 1638 221 1624 293 1660 28
791 1626 131 1638 298 1646 68 1613 88
403 1629 160 1647 80 1630 134
4165 1646 255 1613 66 1686 90 1635 221 1667 142 1594 143 1671 156 1636 298 1682 124 1644 45
1801 1623 150 1631 89 1650 259 1628 169 1651 130
2441 1619 330 642 127 602 79 1630 72 1654 146 1645 152 1642 72 1653 255
4 1618 46
471 642 82 1640 72 602 190
2224 1657 270 1649 145 1631 246 1627 133 1618 263
4 1638 45 1646 10
2525 1630 453 1640 152 1665 155 1653 320
3322 1626 236 1638 255 1644 10 1671 200 1648 187 1663 178 1636 68 1633 137
2667 1630 140 1665 285 1648 351 1629 327 1659 98 1637 80
2864 1666 12 1629 162 1673 261 1656 18 1681 103 1647 351 1663 62 1665 28 1646 187 1626 33
1675 1661 151 1657 154 1624 173 1652 81 1618 55 1643 145
3346 1639 259 1674 168 1657 91 1631 429 1668 64 1651 49 1677 136 1672 135
2935 1639 130 1650 49 1989 273 1664 65 1991 132 2019 117 1628 65 1672 377
1223 1662 86 1635 167 1661 220 1624 150 1649 81
3159 1665 81 1640 255 1670 12 642 137 1645 320 1683 310
144 1640 146 642 133
4 1631 50
1 1648 18
3545 1650 91 1699 191 1678 524 1680 1 1649 154 1631 169 1661 89 1695 81 1643 270 1677 208
3 1630 34
118 1630 41 1647 98 1665 38
2 1635 28
3667 1687 357 1652 220 1678 73 1679 158 1649 151 1662 197 1667 142 1657 89
559 1667 42 1661 197 1652 86 1635 87
743 1673 109 1646 178 1648 62 1671 178
7 1651 65
3891 1688 390 1693 131 1673 49 1681 77 1647 285 1683 151 1630 39 1645 155 1659 38 1648 28 1653 81
1 1648 12
2715 1704 37 1703 186 1635 162 1662 42 1661 142 1676 16 1687 97 1682 320 1638 142
3 1650 64
2 602 33
1 1653 12
3792 1638 156 1706 46 1686 194 1691 282 1673 267 1663 178 1646 200 1685 36 1692 25
3520 1689 29 1677 251 1708 49 2037 177 2019 156 1650 135 1700 237 1651 377
3715 1665 49 1681 117 1688 181 1710 92 1697 28 1691 131 1711 47 1684 12 1685 12 1671 267 1648 261 1663 109 1701 42
201 1677 174 1650 168
16 642 77
1 1667 16
3028 1700 153 1650 136 1695 226 1672 251 1674 174 1657 208
2949 1698 14 1702 197 1680 8 1696 11 1687 82 1699 277 1657 524 1661 73
34 1661 158
1 1678 8 1657 1
313 1673 117 1648 103 1665 77
2402 1667 320 1718 212 1686 274 1638 124 1706 56 1703 205 1712 128
2447 1690 254 1693 78 642 91 1694 216 1665 151 1653 310
1 1673 12
7 1671 36 1673 12
1457 1638 90 1671 194 1706 198 1682 274
2249 1667 97 1702 440 1678 82 1661 357 1705 13 1703 124 1704 47
3413 1720 62 1693 112 1673 181 1701 41 1715 243 1711 228 1665 390
3 1672 29
2450 642 33 1714 164 1683 254 1694 167 654 168 1709 129 671 121
1979 1671 282 1710 169 1713 124 1706 215 1719 106 1673 131
2 1671 25
1231 1694 91 1709 95 1688 112 1715 211 1665 131 1683 78
1279 1690 167 1683 216 1693 91 1709 244
3090 1724 128 1723 218 1708 96 1707 21 1677 226 1699 293 1700 292 1657 81
1 1678 11
2 1673 28
1 1678 14
3710 1730 59 1678 277 1657 191 1725 145 1723 192 1695 293 1717 182 1702 24
1890 1708 340 1672 237 1695 292 1677 153
38 1673 42 1688 41
2661 1687 440 1717 218 1699 24 1721 157 1703 240 1678 197
3240 1718 108 1704 26 1667 186 1734 93 1682 205 1721 264 1702 240 1729 76 1726 158 1687 124
67 1667 37 1687 47 1703 26
1 1687 13
3514 1719 317 1686 198 1726 46 1691 215 1728 24 1718 217 1671 46 1736 80 1735 169 1682 56
1 1695 21
3677 1724 196 1732 298 1672 49 2059 118 1695 96 2037 215 1700 340 1733 154
4385 1690 129 1738 214 1731 147 1715 140 1694 244 1693 95 1750 121 1744 132 1714 111 1727 350 1722 82
2110 1720 207 1728 169 1716 12 1719 86 1673 92 1711 101 1691 169
1170 1720 222 1673 47 1688 228 1710 101
28 1682 128
19 1691 124
1654 1731 153 671 250 1690 164 1709 111
2483 1688 243 1727 413 1720 83 1709 140 1693 211
1 1710 12
882 1725 141 1699 182 1702 218 1721 18
935 1682 212 1706 217 1703 108 1726 187
1199 1728 195 1706 317 1710 86 1691 106
3301 1688 62 1739 217 1711 222 1727 82 1710 207 1737 141 1715 83 1743 67 1728 148
1222 1729 188 1717 18 1703 264 1702 157 1725 112
17 1709 82
3037 1742 89 1745 168 1730 200 1751 80 1733 283 1695 218 1724 235 1699 192
814 1708 196 1695 128 1723 235 1733 74
2557 1729 254 1699 145 1721 112 1730 314 1717 141
2144 1746 101 1736 254 1734 241 1718 187 1706 46 1703 158
2812 1738 421 1739 25 1720 82 1715 413 1709 350 1743 92
3737 1759 96 1706 24 1735 268 1720 148 1737 305 1710 169 1719 195
4081 1721 188 2111 142 1725 254 1734 446 1755 109 1741 38 1730 186 1703 76
3343 2106 200 1729 186 1751 137 1725 314 1723 200 1755 34 1758 182 1699 59 2111 127
2497 1757 28 721 126 1756 2 1744 207 700 140 671 153 1709 147 1714 153
3368 1749 60 2091 91 2078 154 2090 51 2060 113 2043 17 1733 201 1748 52 1708 298 1752 62 2059 130
3358 1732 201 1723 283 1752 434 1745 258 1708 154 1724 74 1748 43
3319 2121 2 2114 185 2111 53 1729 446 1760 195 1746 106 1747 11 1726 241 1703 93
2540 1736 313 1728 268 1759 50 1706 169 2110 123 2116 115
3679 1746 341 2116 116 1740 58 1706 80 1735 313 1726 254 2115 124
1619 1754 93 1753 70 1720 141 1739 109 1759 130 1728 305
3039 1750 209 2109 96 1727 421 1709 214 1743 295
666 1754 50 1743 167 1737 109 1727 25 1720 217
3 1736 58
3 1729 38
12 1723 89
3658 2125 134 1738 295 1754 201 2109 181 1720 67 1727 92 1739 167 2107 16
3580 1731 207 1757 35 1750 285 721 139 2119 121 1709 132 2118 335
2129 1751 329 1723 168 2112 25 1733 258 1752 112
1090 1736 341 1734 106 1760 178 1726 101 2115 46
1 1734 11
64 1733 43 1752 32 1732 52
4 1732 60
2985 1709 121 1744 285 2135 134 1738 209 2119 235 2109 185
3398 2106 263 2112 287 2129 109 1745 329 1730 137 2108 119 1723 80
3744 1733 434 2112 245 1748 32 1732 62 2123 58 2091 58 2124 201 2117 23 1745 112 2122 317
6 1737 70
3691 1759 346 1743 201 2137 133 1737 93 1739 50 2136 281 2142 18 2125 87
62 1729 109 1730 34
2 1731 2 721 24
54 1744 35 1731 28 721 31
36 1730 182
3612 1754 346 1728 96 2113 13 2120 36 2110 330 1735 50 2140 143 1737 130 2136 133 2137 106
1174 1734 195 1746 178 2114 180 2115 58
1367 1448 265 1783 80 1762 230
2482 1784 116 1783 92 1763 170 1787 228 1761 230
2311 1784 52 1782 183 1794 32 1787 74 1765 239 1764 134 1762 170
47 1763 134
3561 1788 13 1766 291 1782 252 1810 84 1801 46 1799 140 1763 239
2765 1767 117 1765 291 1778 177 1801 189
865 1768 59 1778 215 1766 117
1415 1767 59 1780 142 1769 112 1778 145
2426 1792 53 1800 86 1791 121 1780 169 1768 112 1770 254
3148 1791 105 1769 254 1790 165 1771 244 1779 15
1285 1790 227 1770 244 1772 166
2479 1790 39 1771 166 1795 189 1785 12 1773 308 1806 23
3346 1796 317 1775 147 1774 240 1772 308 1786 139 1806 87 1798 86
535 1773 240 1775 119
2616 1786 170 1774 119 1773 147 1777 123 1797 188 1776 214 1781 172
584 1777 102 1775 214
1476 1797 94 1776 102 1775 123
3251 1767 215 1800 136 1803 210 1766 177 1801 150 1807 121 1780 160 1789 12 1768 145
1 1770 15
1146 1778 160 1800 159 1769 169 1768 142 1792 7
64 1775 172
1189 1787 84 1765 252 1799 200 1763 183
3107 1787 86 1469 312 1793 52 1448 392 1761 80 1762 92 1809 253
138 1763 52 1787 105 1762 116
1 1772 12
723 1775 170 1797 35 1804 143 1796 39 1773 139
2549 1784 105 1763 74 1782 84 1783 86 1809 276 1815 53 1794 32 1799 172 1762 228
1 1765 13
1 1778 12
1623 1806 186 1791 246 1795 60 1770 165 1771 227 1772 39
3534 1816 245 1800 205 1769 121 1770 105 1792 4 1805 35 1790 246 1806 88 1820 121
79 1800 77 1769 53 1791 4 1780 7
89 1783 52 1448 88
5 1763 32 1787 32
401 1772 189 1790 60 1806 108
2209 1811 9 1806 25 1786 39 1798 98 1813 178 1804 235 1773 317
3087 1804 194 1808 168 1777 94 1775 188 1818 303 1786 35
62 1773 86 1796 98
4261 1810 318 1812 158 1787 172 1815 274 1830 69 1765 140 1834 43 1782 200 1819 4
2561 1778 136 1791 205 1769 86 1792 77 1780 159 1803 375 1820 100
2413 1814 115 1802 127 1765 46 1766 189 1810 272 1778 150 1807 107
11 1801 127
3458 1820 146 1800 375 1822 15 1828 169 1807 37 1814 254 1778 210
3077 1823 267 1797 194 1818 115 1786 143 1808 79 1813 95 1832 57 1796 235
2 1791 35
3080 1791 88 1817 10 1795 108 1821 250 1829 67 1816 40 1813 239 1790 186 1773 87 1796 25 1824 83 1772 23
448 1803 37 1778 121 1801 107 1814 124
119 1797 168 1804 79
4206 1815 228 1835 138 1826 231 1469 71 1825 200 1787 276 1783 253
3587 1843 113 1842 109 1831 253 1814 96 1799 318 1801 272 1765 84 1834 193 1819 2
1 1796 9
68 1799 158 1815 32
2049 1804 95 1823 98 1824 143 1806 239 1839 43 1796 178
2215 1803 254 1828 33 1807 124 1831 243 1810 96 1801 115
2242 1812 32 1809 228 1787 53 1830 59 1840 12 1826 178 1799 274 1834 112
1636 1829 86 1806 40 1821 288 1838 220 1791 245 1837 31 1820 139
1 1806 10
3373 1804 115 1832 116 1797 303 1833 351 1827 240
1 1799 4 1810 2
2965 1803 146 1816 139 1791 121 1828 230 1836 103 1837 278 1800 100
1957 1816 288 1838 101 1829 253 1806 250
1 1803 15
1754 1804 267 1813 98 1839 372 1832 265
1310 1839 116 1806 83 1829 358 1813 143
47 1809 200
1871 1815 178 1809 231 1845 34 1844 15 1846 210 1835 74 1834 57
2697 1869 80 1818 240 1866 164 1832 240 1867 110 1833 249
2307 1841 450 1831 109 1803 169 1855 45 1836 18 1814 33 1837 126 1820 230
3227 1838 178 1857 3 1816 86 1860 7 1806 67 1847 284 1821 253 1839 122 1858 11 1824 358
295 1815 59 1799 69 1834 192
1968 1848 90 1841 137 1828 109 1810 253 1814 243 1843 193
2182 1866 63 1863 25 1804 57 1839 233 1818 116 1827 240 1823 265
2593 1818 351 1827 249 1867 75
4673 1846 227 1799 43 1826 57 1830 192 1862 14 1810 193 1859 207 1843 237 1861 180 1842 328 1815 112
2738 1850 167 1826 74 1846 213 1845 14 1844 1 1469 24 1503 412 1865 114 1809 138
44 1820 103 1828 18
1947 1855 67 1838 121 1816 31 1820 278 1828 126 1849 210
2815 1821 101 1857 258 1816 220 1837 121 1856 8 1849 109 1829 178
3692 1873 92 1874 127 1829 122 1813 43 1823 372 1866 247 1824 116 1847 254 1852 20 1832 233
1 1815 12
4080 1828 450 1848 181 1831 137 1871 313 1855 308 1853 31
352 1810 109 1834 328
1312 1848 158 1859 131 1810 113 1831 193 1834 237
1 1835 1 1826 15
20 1846 16 1826 34 1835 14
2950 1845 16 1861 149 1826 210 1835 213 1850 290 1834 227 1864 96
2884 1857 230 1858 58 1873 120 1839 254 1829 284
2912 1843 158 1871 104 1831 90 1859 413 1841 181 1854 41 1885 176
3477 1837 210 1851 26 1856 101 1877 209 1872 169 1855 159 1889 44 1857 184 1838 109
2671 1865 179 1868 25 1864 243 1884 46 1835 167 1846 290 1881 137
2 1849 26
4 1839 20
3 1841 31
3 1848 41
1766 1871 91 1837 67 1841 308 1849 159 1877 137 1828 45 1887 16
22 1857 42 1849 101 1838 8
2689 1878 103 1858 4 1829 3 1860 9 1847 230 1873 12 1872 389 1856 42 1849 184 1838 258
7 1857 4 1829 11 1847 58
2984 1896 71 1843 131 1861 114 1897 12 1885 113 1879 47 1834 207 1848 413 1882 416
6 1857 9 1829 7
2168 1846 149 1859 114 1870 14 1864 105 1884 265 1882 102 1879 8 1834 180
1 1834 14
2 1832 25
954 1846 96 1861 105 1850 243 1884 72
4023 1528 11 1881 244 1540 104 1900 94 1565 332 1914 99 1850 179 1875 12 1895 72 1915 31 1503 69 1835 114
3760 1886 43 1910 48 1880 101 1869 46 1839 247 1905 61 1892 120 1908 206 1876 27 1867 274 1874 172 1827 164 1832 63
3612 1893 269 1869 183 1833 75 1902 39 1827 110 1905 167 1866 274
2 1850 25
381 1867 183 1866 46 1827 80
1 1861 14
1354 1887 290 1855 91 1885 106 1848 104 1841 313
1844 1849 169 1889 53 1890 118 1857 389 1878 264
799 1878 68 1839 92 1874 96 1857 12 1886 105 1847 120
1302 1839 127 1873 96 1866 172 1886 139 1876 19 1892 150
1 1865 12
4 1874 19 1866 27
2399 1855 137 1849 209 1883 12 1889 227 1887 329
2958 1924 3 1873 68 1907 117 1890 392 1917 66 1857 103 1886 106 1872 264 1906 159 1927 53 1891 36
11 1861 8 1859 47
27 1866 101
960 1865 244 1850 137 1900 57 1884 166
1472 1897 96 1899 86 1896 67 1884 30 1859 416 1861 102
1 1877 12
2989 1916 18 1864 72 1903 83 1900 297 1881 166 1850 46 1899 352 1882 30 1861 265
1774 1848 176 1871 106 1887 167 1859 113 1901 17 1912 58 1904 161 1897 89
3602 1939 44 1874 139 1925 119 1866 43 1908 201 1906 252 1878 106 1919 15 1892 280 1873 105 1917 195
3979 1926 103 1912 154 1885 167 1877 329 1855 16 1922 216 1911 42 1920 71 1871 290 1889 58
1 1565 13
1924 1922 137 1849 44 1877 227 1887 58 1890 77 1872 53 1913 281
1884 1878 392 1898 19 1927 203 1872 118 1889 77 1913 158
3 1878 36
542 1886 280 1866 120 1874 150
1960 1918 94 1894 12 1867 269 1905 95 1921 166 1902 40
2 1893 12
5 1865 72
237 1882 67 1897 102 1859 71
3474 1912 78 1904 192 1885 89 1896 102 1899 209 1909 80 1859 12 1930 239 1882 96
1 1890 19
2953 1884 352 1900 35 1935 95 1923 247 1930 76 1897 209 1882 86 1932 40
2394 1915 100 1865 94 1923 314 1929 46 1881 57 1899 35 1884 297
1 1885 17
8 1867 39 1893 40
11 1884 83
922 1885 161 1912 146 1897 192
1041 1893 95 1867 167 1866 61 1918 47 1908 270
760 1917 79 1878 159 1886 252
12 1878 117
4731 1886 201 1943 320 1947 60 1925 154 1933 17 1905 270 1918 405 1939 177 1866 206
10 1897 80
9 1866 48
2 1887 42
3308 1930 224 1945 182 1920 63 1885 58 1940 15 1887 154 1954 18 1926 378 1897 78 1904 146
2873 1922 69 1946 141 1890 158 1936 58 1950 29 1889 281 1934 150 1927 308
2051 1586 206 1928 68 1865 99 1915 480 1565 232
2942 1957 96 1900 100 1914 480 1923 189 1944 283 1586 204 1865 31
1 1884 18
2759 1949 119 1937 213 1878 66 1927 117 1924 3 1886 195 1939 53 1947 78 1906 79
3298 1908 405 1921 190 1943 56 1893 94 1933 17 1951 109 1905 47 1952 182 1931 30
1 1886 15
139 1887 71 1926 52 1912 63
532 1918 190 1893 166
1428 1889 137 1934 284 1913 69 1887 216 1926 197
3272 1900 314 1941 361 1899 247 1944 56 1935 26 1929 92 1915 189
1 1878 3 1917 3
159 1908 154 1886 119
3604 1912 378 1961 75 1934 141 1938 14 1922 197 1920 52 1954 167 1887 103 1958 3
1907 1949 81 1878 53 1950 152 1917 117 1913 308 1890 203 1937 197
212 1914 68 1586 122 1565 113
48 1923 92 1900 46
3144 1935 177 1955 28 1899 76 1897 239 1945 248 1912 224 1953 94 1948 34 1941 131
2 1918 30
3 1899 40
4 1918 17 1908 17
3192 1946 195 1926 141 1913 150 1922 284 1950 230 1961 212 1974 21
318 1899 95 1941 43 1923 26 1930 177
4 1913 58
1664 1949 265 1917 213 1927 197
1 1926 14
515 1908 177 1886 44 1917 53 1947 129
1 1912 15
3315 1973 121 1960 206 1923 361 1955 552 1944 82 1930 131 1935 43
2 1586 30
942 1918 56 1947 244 1908 320 1951 164
3090 1941 82 1915 283 1923 56 1960 164 1991 94 1957 419 1973 290
3383 1954 244 1971 211 1953 322 1912 182 1930 248 1956 22
529 1913 141 1934 195 1950 187
3978 1951 153 1943 244 1972 36 1908 60 1964 320 1949 145 1917 78 1970 326 1939 129
2 1930 34
3662 1965 79 1964 218 1979 136 1966 6 1947 145 1967 212 1917 119 1950 90 1937 265 1980 7 1927 81
3234 1966 383 1913 29 1927 152 1974 217 1949 90 1946 187 1963 10 1934 230
2264 1970 105 1943 164 1918 109 1977 94 1952 404 1947 153
2019 1918 182 1977 129 1970 123 1951 404 1986 38
2282 1971 160 1956 1 1982 45 1984 62 1955 473 1930 94 1945 322
2560 1961 137 1959 26 1945 244 1971 132 1926 167 1968 283 1985 71 1912 18 1958 19
3373 1987 142 1984 142 1930 28 1941 552 1953 473 1962 75 1973 99
2 1953 1 1945 22
3088 1991 74 1628 498 1989 274 1944 419 1915 96 1586 55 1981 16
2 1954 19 1926 3
2 1954 26
936 1941 206 1973 195 1944 164
894 1926 75 1934 212 1974 110 1954 137 1968 214
29 1955 75
1 1950 10
2699 1947 320 1980 123 1979 119 1993 120 1970 131 1969 102 1972 20 1949 218
6 1949 79
2731 1978 124 1950 383 1949 6 1995 183 1967 117 1990 204 1976 30 1974 122 2004 14
2317 1975 72 1966 117 1976 52 1995 83 1979 235 1949 212 1978 256
3577 1961 214 1999 160 1983 83 1994 81 1954 283 1985 84 1974 91 1988 292
15 1964 102
2728 1986 127 1964 131 1993 157 1951 105 1998 157 1952 123 1947 326
2258 1984 183 1945 211 1953 160 1985 132 1982 87 1954 132
15 1964 20 1947 36
3148 1944 290 1941 121 1987 68 1960 195 1991 179 1955 99 2000 149
2278 1950 217 1968 91 1966 122 1961 110 1988 159 1934 21 1990 174
5 1967 72
22 1967 52 1966 30
3677 2007 279 1952 129 2018 219 1986 348 1951 94 2015 16
554 1967 256 1995 24 1966 124
2349 1949 136 1964 119 1995 48 1993 41 1980 160 1996 289 1967 235
167 1979 160 1964 123 1949 7
1 1957 16
97 1953 45 1984 42 1971 87
9 1968 83
3765 1953 62 1997 108 1982 42 2002 68 1955 142 2005 314 1985 139 1987 148 1971 183 1992 47 2008 127
1104 1999 107 1984 139 2002 41 1954 71 1971 132 1994 47 1968 84
1286 1998 121 1952 38 1970 127 2007 105 1977 348
2999 2031 18 2000 275 2010 83 1984 148 1955 142 2005 236 2022 218 1973 68
2749 2006 68 1990 157 1968 292 2001 150 1999 110 2013 311 1974 159
1443 1628 71 1957 274 1991 408 1651 273
2110 1988 157 1966 204 2003 34 2006 5 2013 62 1974 174 2004 310
3074 1989 408 1957 74 2019 148 2020 54 1944 94 2000 243 1651 132 1973 179
3 1984 47
3828 1979 41 1996 91 2027 184 1970 157 2016 364 1964 120 2007 30 1998 121 2040 1 2009 333
45 1985 47 1968 81
2885 1967 83 1966 183 2004 231 2021 77 1996 225 1978 24 1979 48 2014 116
3599 2025 231 1979 289 1993 91 2014 127 1995 225 2009 236 2021 52
49 1984 108
1070 1993 121 1986 121 1970 157 2007 196
3350 2001 42 2002 98 2024 179 1985 107 1988 110 1968 160 2013 147 2011 75 2032 49 2012 36 2008 130 2017 156
2157 2022 162 2020 134 1987 275 1973 149 1991 243 2026 34
80 2013 111 1999 42 1988 150
199 1984 68 1985 41 1999 98 2008 66
2 1990 34
3025 2021 136 1966 14 2033 238 1990 310 2028 103 2013 168 1995 231 2035 40
1887 2022 203 2008 193 1984 314 2017 87 1987 236
10 2013 3 1990 5 1988 68
2379 1986 105 1977 279 1993 30 2016 228 2018 146 2034 74 1998 196
1553 1999 130 1984 127 2002 66 2005 193 2017 211
915 1993 333 1996 236 2025 47 2027 64
17 1987 83
94 2017 90 1999 75
2 1999 36
3027 2006 3 1990 62 2004 168 2024 148 2001 111 1988 311 1999 147 2028 268
328 1995 116 1996 127 2021 98
1 1977 16
2558 2034 196 1993 364 2046 93 2007 228 2027 155
2230 2005 87 2008 211 2023 51 2029 158 1999 156 2039 124 2032 140 2011 90 2022 6
2368 2007 146 2049 59 2034 238 2045 75 1977 219
1899 2043 109 2020 201 1651 117 1672 156 2037 206 1991 148
2640 2036 236 2000 134 2043 158 1991 54 2019 201 2026 59 2022 32
3943 1995 77 2025 247 2055 79 2004 136 2042 68 2051 40 2038 372 1996 52 2056 125 2030 191 2033 72 2014 98
2835 2017 6 2044 36 2041 156 2036 277 2031 69 2026 34 2029 180 2020 32 1987 218 2000 162 2005 203
8 2017 51
3289 2053 172 2013 148 2028 336 1999 179 2032 262 2039 157
1758 2021 247 2027 117 1996 231 2009 47 2042 220
65 2000 34 2020 59 2022 34
3033 2009 64 2057 59 1993 184 2042 180 2054 118 2016 155 2025 117 2046 164 2040 27 2047 93
3341 2033 136 2024 336 2053 287 2013 268 2004 103 2050 162
1073 2044 142 2022 180 2039 176 2017 158
127 2021 191
17 1987 18 2022 69
473 1999 49 2039 112 2017 140 2024 262
2210 2035 41 2062 58 2050 204 2038 355 2004 238 2028 136 2021 72
3231 2049 243 2046 146 2064 91 2054 110 2016 196 2018 238 2065 45 2007 74
24 2004 40 2033 41
3598 2041 180 2052 285 2020 236 2060 99 2022 277 2044 228 2043 105
1898 2019 206 2043 224 2059 28 1708 215 1672 177
2588 2066 37 2055 151 2033 355 2021 372 2063 134 2062 40
3040 2053 81 2017 124 2029 176 2061 85 2058 281 2024 157 2032 112 2048 108 2044 164
8 2027 27 1993 1
279 2022 156 2044 99 2036 180
3578 2057 36 2027 180 2025 220 2054 107 2021 68 2051 215 2056 170 2070 283 2071 60
2583 2019 109 2060 208 2059 199 2037 224 1732 17 2036 105 2020 158
3896 2081 223 2041 99 2029 142 2052 260 2061 218 2022 36 2036 228 2039 164 2079 113
108 2049 44 2018 75
1249 2047 29 2016 93 2027 164 2054 246 2034 146
31 2046 29 2027 93
24 2039 108
1559 2068 64 2045 44 2065 213 2034 243 2018 59
1390 2053 91 2069 72 2028 162 2033 204 2062 159
128 2021 40 2042 215 2056 19
1699 2078 123 2036 285 2081 55 2060 239 2044 260
3943 2050 91 2072 255 2024 172 2039 81 2069 129 2080 122 2058 179 2082 123 2028 287
3454 2046 246 2064 90 2070 268 2027 118 2067 130 2034 110 2075 264 2073 12 2084 32 2057 37 2042 107
2637 2062 235 2038 151 2093 21 2021 79 2097 85 2071 173 2063 138 2086 204 2056 322
1278 2021 125 2051 19 2071 87 2042 170 2055 322
35 2027 59 2054 37 2042 36
3252 2077 80 2085 76 2061 378 2039 281 2053 179 2082 307 2072 107
644 1732 130 2043 199 1708 118 2037 28
2158 2036 99 2078 272 2043 208 2052 239 2076 33 1732 113
1793 2079 151 2058 378 2039 85 2044 218 2074 26 2085 134
3433 2083 299 2050 159 2063 224 2066 66 2069 216 2055 235 2038 40 2093 174 2033 58
674 2062 224 2038 134 2055 138
2676 2089 187 2444 246 2054 90 2087 59 2075 434 2094 2 2034 91 2065 269 2067 11
2301 2049 213 2089 189 2068 44 2034 45 2064 269
45 2038 37 2062 66
82 2064 11 2054 130
24 2049 64 2065 44
2002 2093 12 2088 104 2080 202 2062 216 2053 129 2050 72
3451 2042 283 2071 118 2086 131 2054 268 2087 318 2084 41
742 2042 60 2070 118 2086 108 2056 87 2055 173
199 2058 107 2053 255
2 2054 12
2 2061 26
2453 2064 434 2087 250 2084 78 2054 264
2 2060 33
11 2058 80
3727 2091 374 2081 188 2052 123 2092 113 2104 110 2060 272 1732 154 2442 162
2870 2085 50 2081 244 2451 138 2061 151 2082 37 2104 116 2440 51 2098 201 2044 113
3145 2093 287 2096 312 2069 202 2088 90 2053 122 2082 105 2452 43 2458 242
1019 2044 223 2079 244 2052 55 2078 188 2104 40
3629 2101 38 2079 37 2102 222 2053 123 2085 219 2080 105 2099 173 2095 91 2058 307 2100 136 2098 190 2096 235 2103 8
417 2062 299 2093 144
252 2070 41 2054 32 2087 47 2075 78
517 2061 134 2058 76 2082 219 2079 50
1829 2071 108 2070 131 2097 80 2087 85 2105 222 2441 57 2055 204
4145 2445 139 2105 24 2070 318 2064 59 2454 205 2446 68 2459 132 2444 103 2453 66 2075 250 2084 47 2447 7 2086 85
112 2080 90 2069 104
2407 2065 189 2064 187 2457 156 2449 93 2444 38 2094 25
26 2091 27 1732 51
1850 2090 27 2124 298 2078 374 1752 58 2450 77 2442 112 1732 91
23 2078 113
2978 2062 174 2456 289 2055 21 2083 144 2069 12 2080 287 2097 184 2458 31
2 2089 25 2064 2
6 2082 91
1278 2452 108 2080 312 2099 68 2102 112 2082 235
1060 2093 184 2461 10 2055 85 2105 235 2456 154 2086 80
3154 2462 227 2455 81 2464 120 2079 201 2082 190 2102 202 2100 52 2443 77 2451 165
176 2096 68 2102 139 2082 173
93 2098 52 2082 136
24 2102 91 2082 38
2827 2464 130 2455 39 2452 308 2082 222 2096 112 2099 139 2098 202 2101 91
1 2082 8
1075 2081 40 2078 110 2451 151 2442 227 2079 116
2128 2461 76 2097 235 2087 24 2441 41 2445 416 2086 222
2030 2131 50 1751 263 1730 200 2129 156 2111 206
1 1743 16
13 1751 119
3927 2148 131 2127 22 2144 128 1743 181 2153 30 2125 197 2145 42 2149 134 1750 185 1738 96 2135 137
2025 2113 5 1759 330 2140 168 2116 216 2130 187 1735 123
2065 1729 142 2121 29 2106 206 1730 127 2114 349 2133 199 1734 53 2131 101
3029 2156 6 1745 25 2122 261 1752 245 2129 171 1751 287 2152 188 2150 170
3 2110 5 1759 13
4550 2111 349 2151 62 2115 334 1734 185 1760 180 2121 110 2133 146 2128 35 2126 65 2138 347 2146 159
3189 1746 46 2116 159 1736 124 2114 334 2128 127 1760 58 2130 162 2151 161
1181 1736 116 2110 216 1735 115 2115 159 2130 46
1 1752 23
1523 1744 335 721 227 1119 84 2119 134 2134 145
1895 1744 121 1750 235 2118 134 2135 217 2134 99 2132 117
2 1759 36
52 1734 2 2111 29 2114 110
2743 1752 317 2124 163 2152 159 2143 219 2112 261
4 1752 58
3180 2147 255 1752 201 2143 31 2091 298 2450 188 2470 19 2122 163
2953 1754 87 1743 134 2149 234 2144 136 2109 197 2141 107 2136 212 2157 45
5 2114 65
4 2109 22
58 2115 127 2114 35
3464 2106 156 2131 298 2158 43 2133 186 1751 109 2112 171 2160 28 2150 197
3289 2165 95 2116 46 2110 187 2139 13 2170 167 2115 162 2151 259 2140 262
1487 2133 320 2160 56 2129 298 2163 175 2106 50 2111 101
29 2119 117
3856 2114 146 2138 389 2131 320 2163 153 2129 186 2168 38 2111 199
3104 2119 99 1152 109 1119 201 2173 144 2135 164 2167 41 1128 134 2118 145 2154 256 2161 33
1576 1750 134 2109 137 2148 157 2154 77 2119 217 2134 164
4043 2165 139 1754 281 2164 324 1759 133 2125 212 2141 56 2157 157 2137 39 2140 180
221 2136 39 1754 133 1759 106
1594 2146 313 2168 123 2133 389 2114 347
1 2130 13
1881 2110 168 2165 198 2136 180 1759 143 2130 262
36 2136 56 2125 107
1 1754 18
1665 2152 79 2159 185 2124 31 2147 295 2166 88 2172 130 2122 219
272 2125 136 2109 128 2149 67
3 2109 42
3662 2171 282 2183 57 2138 313 2114 159 2175 117 2151 202 2168 268
2794 2172 323 2450 300 2124 255 2143 295 2488 50
1753 2135 157 2149 151 2153 61 2162 183 2109 131 2173 54 2154 168
2440 2169 354 2164 79 2125 234 2157 67 2109 134 2144 67 2162 74 2148 151
1025 2152 165 2129 197 2112 170 2160 277
1965 2170 123 2171 199 2130 259 2114 62 2115 161 2146 202
2311 2156 6 2143 79 2166 224 2122 159 2159 130 2178 106 2112 188 2160 189 2150 165
15 2109 30 2148 61
1248 2134 256 2173 127 2148 168 2135 77
2 1119 25
1 2112 6 2152 6
512 2125 45 2149 67 2136 157 2164 116
8 2129 43 2160 22
355 2152 130 2166 83 2143 185
3393 2150 277 2158 22 2186 62 2163 154 2181 245 2131 56 2152 189 2176 44 2180 16 2178 109 2187 119 2129 28
7 2134 33 1152 45
2817 2148 183 2169 262 2190 270 2174 81 2173 227 2189 89 2149 74
3850 2168 237 2133 153 2160 154 2186 201 2180 27 2196 107 2193 328 2131 175
2928 2136 324 2205 106 2149 79 2194 76 2169 85 2179 407 2165 203 2157 116
3920 2130 95 2171 52 2170 189 2140 198 2184 65 2164 203 2136 139 2194 317 2177 72
2487 2178 491 2159 83 2172 210 2152 224 2143 88
86 2134 41 1128 56 1152 96
2350 2133 38 2192 132 2138 123 2163 237 2196 255 2146 268 2183 56 2197 8
4040 2212 83 2217 105 2179 411 2162 262 2164 85 2203 110 2149 354 2182 109 2200 16 2190 230
1114 2184 134 2165 189 2171 138 2151 123 2130 167
3509 2183 173 2192 182 2146 282 2151 199 2170 138 2194 79 2184 58 2165 52 2199 168 2198 86
3507 2166 210 2147 323 2521 358 2508 27 2143 130 2488 330 2513 82 2499 51
2313 2154 127 2188 154 2185 8 2189 300 2134 144 1152 157 2162 227 2148 54
13 2162 81
26 2146 117
3 2160 44
5 2165 72
2889 2521 231 2540 58 2187 198 2160 109 2211 164 2166 491 2195 24 2201 75 2152 106
3162 2218 63 2205 111 2169 411 2212 190 2164 407
4 2163 27 2160 16
780 2186 99 2187 115 2160 245
27 2169 109
676 2192 256 2171 173 2146 57 2168 56
122 2165 65 2171 58 2170 134
1 2173 8
3709 2201 161 2187 307 2220 221 2163 201 2207 75 2222 48 2193 128 2160 62 2181 99 2215 137
2112 2160 119 2178 198 2201 150 2186 307 2181 115 2195 153
2616 2191 107 2204 224 1159 101 1160 27 1152 148 2206 87 1175 118 2189 133 2173 154
2355 2191 53 2202 20 2190 184 2173 300 2206 156 2188 133 2162 89
3482 2169 230 2217 101 2162 270 2206 325 2203 109 2189 184
111 2188 107 2189 53
3901 2168 132 2171 182 2210 320 2196 208 2199 127 2209 172 2183 256
856 2196 91 2186 128 2163 328 2207 142
3678 2219 76 2214 239 2165 317 2164 76 2205 94 2208 11 2218 55 2198 31 2171 79 2199 301
60 2187 153 2178 24
2198 2209 244 2168 255 2192 208 2207 123 2193 91 2163 107
1 2168 8
58 2194 31 2171 86
3074 2194 301 2171 168 2221 14 2210 140 2214 280 2223 239 2192 127
1 2169 16
2570 2211 252 2186 161 2233 131 2178 75 2187 150 2225 172
1 2189 20
252 2169 110 2217 90 2190 109
890 2206 112 2213 256 2188 224 1175 131
531 2194 94 2164 106 2179 111 2218 100
3820 2226 157 2213 140 2188 87 2189 156 2217 266 2204 112 2216 127 2228 330 2190 325
2062 2215 29 2193 142 2220 193 2186 75 2196 123 2238 118 2209 206 2224 52
1 2194 11
2778 2192 172 2227 388 2207 206 2238 89 2196 244 2239 112 2210 10
2126 2227 129 2209 10 2231 266 2223 50 2199 140 2192 320
1887 2556 17 2540 91 2233 198 2201 252 2178 164
755 2179 190 2218 145 2169 83 2217 46 2229 61
2433 2206 140 1175 129 2204 256 2228 180 1211 56 2247 148 1198 135
3938 2236 42 2219 152 2218 38 2223 19 2251 97 2237 240 2194 239 2246 254 2230 214 2199 280
82 2220 68 2186 137 2207 29
72 2228 33 2206 127
2844 2190 101 2212 46 2206 266 2242 138 2228 226 2169 105 2229 239 2203 90
2402 2219 70 2212 145 2214 38 2230 243 2232 54 2194 55 2179 63 2229 217 2205 100
329 2194 76 2218 70 2214 152
3802 2186 221 2240 350 2224 208 2238 81 2207 193 2222 71 2225 181 2215 68 2248 160 2243 22
1 2199 14
101 2186 48 2220 71 2225 45
477 2199 239 2214 19 2210 50 2231 70 2237 47
102 2220 208 2207 52
1202 2222 45 2220 181 2201 172 2233 57 2240 49 2244 202
78 2206 157
1752 2239 171 2210 129 2209 388 2252 15 2231 271
4569 2206 330 2242 201 2247 181 2213 180 2235 250 2245 51 2256 294 2217 226 2216 33
2647 2217 239 2212 61 2250 131 2242 170 2230 125 2258 182 2218 217
2965 2229 125 2257 54 2218 243 2250 332 2214 214 2232 6 2246 119 2241 33
3836 2239 161 2234 28 2210 266 2262 160 2227 271 2237 175 2223 70 2251 331
15 2230 6 2218 54
2388 2569 63 2211 198 2249 272 2225 57 2201 131 2244 72 2540 217
2 2231 28
130 2228 250
3 2214 42
1167 2223 47 2231 175 2251 194 2214 240
2120 2209 89 2220 81 2207 118 2239 292 2262 52 2248 135 2254 288
1559 2231 161 2209 112 2227 171 2262 126 2238 292
1911 2243 2 2244 98 2225 49 2255 124 2220 350 2248 218 2253 80
2 2230 33
2403 2258 220 2229 170 2228 201 2266 225 2217 138 2256 151
2 2240 2 2220 22
1400 2253 106 2233 72 2249 204 2240 98 2225 202
4 2228 51
3511 2214 254 2280 53 2257 309 2251 185 2276 388 2268 108 2288 2 2230 119 2250 53
3294 2228 181 2256 55 2270 141 1243 169 2213 148 2261 84 1198 104 1228 8 2263 103
2525 2265 106 2255 143 2254 59 2238 135 2240 218 2253 104 2220 160 2273 240
2401 2233 272 2569 305 2244 204 2260 218 2267 62 2253 65
1349 2229 131 2230 332 2246 53 2257 179 2258 153
3773 2271 182 2279 75 2262 178 2276 170 2231 331 2237 194 2214 97 2246 185 2264 29
1 2227 15
2045 2255 141 2274 398 2259 43 2240 80 2249 65 2248 104 2260 42 2244 106
2206 2283 119 2265 242 2262 159 2238 288 2248 59
846 2248 143 2274 102 2273 173 2253 141 2240 124
2102 2247 55 2228 294 2277 137 2266 60 2263 186 2284 82 2242 151 2275 72
2714 2287 146 2288 146 2272 192 2304 54 2250 179 2299 136 2246 309 2278 274 2258 112 2276 5 2230 54
3438 2250 153 2272 53 2229 182 2266 220 2257 112 2242 220 2278 249
7 2253 43
804 2253 42 2267 217 2274 126 2249 218
68 2247 84 1243 87
2938 2283 48 2238 52 2281 18 2271 48 2251 178 2279 128 2231 160 2254 159 2286 8 2285 230 2239 126
2869 2270 192 2303 20 2305 52 2256 186 2284 123 2298 31 2277 139 2293 137 2247 103 2289 191
2 2251 29
1376 2283 115 2291 133 2273 108 2254 242 2297 78 2248 106
2160 2256 60 2290 121 2284 231 2242 225 2258 220 2278 129
2748 2292 171 2274 135 2295 112 2596 221 2569 32 2260 217 2249 62 2269 25 2312 83
45 2246 108
3 2267 25
1696 2289 214 2263 192 1243 131 2247 141 1252 77
192 2262 48 2279 52 2251 182
187 2257 192 2258 53 2278 37
2315 2265 108 2255 173 2274 95 2248 240 2291 336
3607 2292 46 2291 149 2260 126 2255 102 2267 135 2309 196 2273 95 2295 192 2253 398 2282 53
19 2256 72
2001 2279 140 2288 251 2246 388 2280 21 2251 170 2257 5
158 2284 74 2263 139 2256 137
3301 2272 37 2257 274 2299 116 2266 129 2307 149 2258 249 2290 333
2019 2271 52 2285 110 2251 75 2288 77 2262 128 2306 62 2300 56 2294 146 2276 140
16 2246 53 2276 21
1 2262 18
12 2274 53
2104 2265 115 2285 131 2297 160 2254 119 2286 5 2262 48 2296 122 2308 164
2904 2305 150 2301 50 2266 231 2310 58 2298 55 2256 82 2277 74 2263 123 2293 90 2290 246
1854 2296 177 2283 131 2294 207 2262 230 2279 110
1 2283 5 2262 8
36 2257 146
2425 2246 2 2257 146 2302 80 2304 422 2279 77 2276 251 2306 119
2587 2305 306 1294 306 2319 15 1279 151 1252 140 2263 191 2270 214
4389 2307 225 2284 246 2266 121 2324 74 2326 82 2317 172 2313 23 2310 161 2278 333
3279 2327 125 2274 149 2309 201 2297 336 2273 336 2314 121 2265 133 2325 6
387 2274 46 2295 191 2267 171
1279 2305 452 2263 137 2284 90 2298 91
4096 2332 113 2322 26 2285 207 2279 146 2316 295 2300 126 2306 110 2296 226 2308 240
3907 2309 324 2321 230 2274 192 2292 191 2267 112 2331 110 2312 248
1333 2283 122 2308 257 2285 177 2294 226
2612 2283 160 2265 78 2291 336 2320 5 2314 342 2308 171
63 2305 62 2293 91 2263 31 2284 55
1563 2307 182 2278 116 2304 191 2257 136 2318 202
261 2294 126 2279 56 2306 88
3 2284 50
17 2288 80
1 2263 20
3683 2288 422 2311 19 2328 202 2257 54 2318 97 2316 66 2329 221 2306 102 2299 191
4688 1294 93 2289 306 2293 452 2323 301 2315 95 2334 62 2333 141 2298 62 2263 52 2310 89 2284 150 2317 101
1092 2304 102 2316 207 2300 88 2279 62 2294 110 2288 119
1533 2324 129 2278 149 2318 131 2290 225 2299 182
3942 2296 257 2283 164 2297 171 2294 240 2314 133 2345 137 2332 136 2336 210
2479 2331 13 2295 324 2327 252 2291 201 2274 196
422 2305 89 2284 58 2290 161 2317 61
1 2304 19
2314 2321 97 2295 248 2596 156 2636 314 2267 83 2626 41
2 2290 23
3102 2339 18 2327 97 2297 342 2291 121 2320 30 2343 168 2340 153 2336 117 2308 133
26 2305 95
3739 2330 76 2332 234 2342 261 2294 295 2304 66 2306 207 2329 173
3344 2305 101 2337 249 2324 298 2326 230 2310 61 2358 41 2357 191 2333 150 2290 172
2607 2304 97 2299 202 2341 177 2328 261 2324 155 2307 131
1 2289 15
2 2297 5 2314 30
2576 2295 230 2351 165 2331 214 2312 97 2636 187 2659 83
4 2294 26
1904 2305 301 2337 47 2333 112 2338 329 2334 23 1294 173
2823 2307 129 2317 298 2326 134 2290 74 2341 194 2358 40 2318 155
1 2291 6
567 2324 134 2317 230 2290 82
3440 2348 169 2331 233 2291 125 2356 22 2309 252 2354 89 2340 177 2314 97 2350 1
1672 2329 168 2341 23 2346 168 2318 261 2349 33 2304 202 2353 125
2147 2316 173 2335 17 2328 168 2304 221 2346 208 2342 374
52 2316 76
1472 2351 63 2327 233 2295 110 2321 214 2309 13 2348 212 2355 17
3349 2359 125 2316 234 2342 74 2294 113 2344 20 2345 108 2363 151 2366 78 2308 136
3815 2305 141 2357 180 2338 66 2365 244 2323 112 2337 344 2317 150
19 2305 62 2323 23
1 2329 17
785 2345 63 2314 117 2343 116 2308 210
875 2338 60 2317 249 2333 344 2323 47
3416 2367 50 1331 205 2378 30 2333 66 1354 186 2365 108 1294 234 2337 60 2352 16 2323 329
1 2314 18
1331 2314 153 2354 136 2360 124 2343 88 2327 177
2072 2358 196 2324 194 2318 177 2328 23 2353 337
2796 2362 65 2346 48 2372 96 2316 261 2332 74 2361 128 2363 168 2329 374
2727 2359 61 2364 25 2314 168 2347 31 2345 158 2360 225 2370 152 2336 116 2340 88
1 2332 20
1373 2343 158 2332 108 2359 148 2308 137 2336 63
936 2342 48 2328 168 2361 109 2329 208 2353 102
2 2343 31
3533 2356 324 2331 212 2327 169 2373 138 2374 114 2354 228 2351 204 2350 40
2 2328 33
3 2348 40 2327 1
2070 2659 21 2675 344 2687 38 2700 107 2321 165 2348 204 2373 194 2331 63
1 2338 16
3497 2346 102 2385 62 2384 128 2358 129 2375 43 2361 280 2328 125 2371 175 2341 337
2155 2360 231 2340 136 2374 161 2377 30 2327 89 2348 228
1 2331 17
327 2374 79 2373 10 2327 22 2348 324
3922 2381 196 2317 191 2365 209 2333 180 2371 371 2358 66 2393 206
1104 2353 129 2317 41 2341 196 2375 64 2324 40 2371 161 2357 66
2417 2368 17 2370 290 2332 125 2366 177 2343 61 2345 148
4353 2354 231 2402 123 2383 61 2370 150 2394 148 2390 206 2374 135 2340 124 2379 315 2343 225 2377 30
3369 2372 248 2369 33 2386 153 2385 46 2346 109 2342 128 2362 61 2353 280
71 2361 61 2342 65
602 2342 168 2372 41 2332 151 2366 168
2 2343 25
3086 2338 108 2392 120 2381 267 2378 147 2357 209 2389 126 2333 244 2376 69
3840 2370 196 2359 177 2396 81 2372 159 2405 6 2406 99 2391 192 2363 168 2332 78 2401 172
2 2338 50
1 2359 17
2 2361 33
3281 2360 150 2359 290 2343 152 2398 158 2383 139 2399 12 2400 26 2366 196 2396 160
2231 2357 371 2358 161 2384 198 2393 155 2353 175
3591 2391 181 2387 87 2366 159 2361 248 2411 107 2395 41 2386 137 2363 41 2342 96 2404 185
3046 2382 60 2388 206 2700 208 2374 101 2403 134 2348 138 2351 194 2356 10 2719 150
4020 2373 101 2388 228 2356 79 2348 114 2390 269 2377 196 2360 135 2354 161 2382 261
32 2358 64 2353 43
15 2365 69
269 2374 196 2390 74 2360 30 2354 30
405 2338 30 2389 3 1354 146 2365 147
130 2360 315 2402 36
1 1354 8
1928 2357 196 2409 100 2365 267 2392 184 2393 157
264 2373 60 2388 78 2374 261
390 2394 109 2370 139 2360 61 2402 30
2037 2353 128 2385 164 2410 40 2371 198 2408 199 2393 114
2471 2415 188 2408 130 2417 56 2361 46 2386 280 2384 164 2404 77 2353 62
1157 2361 153 2385 280 2404 46 2372 137
11 2372 87
3200 2382 78 2430 15 2420 193 2374 228 2426 105 2403 264 2373 206 2416 10 2390 221
1134 2397 202 2365 126 2378 3 2392 247 1354 149
3414 2416 3 2360 206 2425 206 2388 221 2374 269 2402 225 2426 103 2377 74
803 2406 86 2411 85 2366 192 2372 181
2812 2407 31 2389 247 2421 317 2381 184 2397 94 2414 41 2409 130 2365 120
1865 2413 66 2409 48 2384 114 2381 157 2410 198 2371 155 2357 206
2252 2398 209 2427 61 2424 85 2360 148 2383 109 2402 220
3 2372 41
566 2366 81 2370 160 2401 114 2398 138
3072 2432 200 1418 58 2421 114 1354 192 2389 202 1387 121 1396 131 2392 94
2231 2400 33 2396 138 2427 152 2429 1 2394 209 2370 158 2401 106 2419 202
1 2370 12
7 2398 33 2370 26
2946 2412 30 2423 10 2406 372 2419 156 2396 114 2398 106 2434 155 2366 172
1825 2360 123 2379 36 2390 225 2424 178 2394 220 2383 30 2425 110
1576 2373 134 2420 153 2719 239 2388 264 2433 111
1093 2415 247 2411 37 2385 77 2386 46 2372 185
1 2366 6
1196 2434 57 2391 86 2366 99 2411 209 2401 372
5 2392 31
4622 2384 199 2431 327 2415 495 4146 47 2385 130 2410 113 2417 148 4151 302 4159 249 4164 2
2327 2428 216 2421 188 2413 52 2381 100 2410 89 2392 130 2393 48 2437 88 2438 86
2014 2428 249 2413 103 2384 40 2409 89 2422 7 2393 198 2408 113 2431 73
2090 2391 85 2415 189 2434 101 2406 209 2372 107 2439 108 2404 37
2 2401 30
195 2410 103 2409 52 2393 66
3 2392 41
3776 2417 118 2411 189 2408 495 2385 188 2404 247 4151 93 2439 201 4146 9
1 2390 3 2388 10
268 2415 118 2385 56 2408 148
2 1396 33
3985 4156 133 2427 331 2434 219 4166 195 4173 50 4150 89 2401 156 2398 202 2429 14
2442 4158 248 2403 153 4149 118 2433 294 2388 193 2435 20 4502 46 2426 172
2012 2432 168 2438 1 2392 317 2397 114 2437 290 2409 188
1 2410 7
1 2401 10
1401 2427 129 2402 178 2425 252 2394 85 2436 180
2803 4149 139 2426 133 2390 206 4153 10 2424 252 2436 225 2402 110 4148 14
1164 4149 96 2390 103 2425 133 2388 105 2420 172
3184 4161 132 2419 331 2424 129 2398 152 4156 111 4157 46 2436 93 2394 61
2718 2431 367 4145 116 2409 216 2410 249 2438 38 2437 135 4162 183 4154 201
1 2398 1 2419 14
1 2388 15
2890 2428 367 2408 327 4159 161 4145 95 2410 73 4154 256
1976 2397 200 2437 292 2421 168 1418 214 4152 168
2754 2719 209 4502 193 2403 111 2420 294 2736 160
2783 4147 30 4167 74 2406 57 4166 90 2419 219 4163 259 4150 83 2401 155 2411 101 2439 98
1 2420 20
3278 2424 180 4183 19 4161 181 4177 196 4149 164 4174 140 4153 23 4169 122 2427 93 2425 225
3343 4168 199 4152 56 4162 51 2421 290 2432 292 4154 70 2428 135 4171 213 2409 88
65 2421 1 2409 86 2428 38
2572 4160 489 4179 94 2415 201 4155 54 2411 108 2434 98 4151 52 4163 267
3 2079 51
52 2105 41 2086 57
2781 2091 112 2104 227 2466 16 2463 165 2078 162 2450 381 2451 83
4 2098 77
2593 2449 131 2460 399 2064 246 2454 161 2448 169 2087 103 2457 68 2089 38
1970 2459 295 2453 46 2467 202 2105 416 2087 139 2461 96
17 2087 68
1 2087 7
62 2444 169
195 2457 46 2089 93 2444 131
3858 2091 77 2469 47 2124 188 2147 300 2488 251 2463 171 2474 91 2442 381
1982 2079 138 2104 151 2471 123 2462 99 2098 165 2442 83 2463 142
3248 2478 65 2472 309 2096 108 2489 86 2464 152 2080 43 2482 125 2102 308 2458 140
30 2087 66 2445 46
2502 2460 249 2459 349 2481 126 2087 205 2465 38 2444 161
29 2098 81 2102 39
3283 2458 221 2093 289 2480 87 2475 156 2461 171 2476 124 2097 154
1058 2449 46 2460 94 2444 68 2089 156 2468 136
1657 2093 31 2472 188 2452 140 2475 50 2080 242 2456 221
3592 2465 80 2445 295 2483 64 2481 60 2467 309 2087 132 2454 349 2487 204
2434 2481 119 2444 399 2468 222 2454 249 2484 46 2457 94
1308 2097 10 2456 171 2476 57 2105 76 2445 96 2467 205
921 2098 227 2451 99 2464 128 2471 147
3180 2450 171 2491 41 2451 142 2471 434 2488 260 2494 118 2442 165 2477 115
2256 2478 99 2462 128 2471 90 2485 134 2098 120 2489 65 2102 130 2452 152
35 2454 38 2459 80
1 2442 16
3219 2476 188 2459 309 2445 202 2461 205 2493 206 2487 227 2486 45
2305 2490 190 2460 222 2457 136 2484 109 2473 14
3 2450 47
2 2124 19
3445 2492 266 2462 147 2479 24 2477 18 2463 434 2501 33 2464 90 2494 108 2451 123 2485 89
3514 2475 257 2452 309 2489 202 2495 123 2482 53 2458 188
1 2468 14
42 2450 91
3269 2507 232 2456 156 2458 50 2495 171 2514 80 2472 257 2476 258 2510 147
2887 2456 124 2475 258 2493 126 2497 21 2480 49 2467 188 2461 57 2511 166 2510 45
29 2471 18 2463 115
397 2452 65 2464 99 2489 120
3 2471 24
119 2456 87 2476 49
4048 2484 253 2460 119 2459 60 2517 114 2483 59 2505 163 2487 150 2498 157 2454 126
60 2452 125 2472 53 2489 33
43 2459 64 2481 59
1606 2460 46 2490 93 2481 253 2468 109 2498 154
613 2492 67 2471 89 2464 134 2489 123
5 2467 45
1892 2505 233 2493 124 2496 20 2506 56 2467 227 2459 204 2481 150
4102 2147 50 2494 195 2463 260 2522 129 2500 18 2450 251 2513 391 2172 330
4576 2492 27 2502 11 2503 528 2516 9 2485 123 2464 65 2482 33 2472 202 2524 127 2523 233 2509 155 2478 120 2452 86 2504 84 2495 170
581 2498 160 2484 93 2468 190
3 2463 41
3347 2501 47 2485 67 2518 284 2516 126 2471 266 2489 27 2522 218 2494 137 2503 95
4463 2467 206 2505 157 2506 227 2497 96 2487 124 2511 211 2531 65 2519 403 2476 126
1049 2471 108 2463 118 2522 64 2492 137 2488 195
1641 2472 123 2509 126 2489 170 2475 171 2507 154
1 2487 20
27 2493 96 2476 21
3251 2481 157 2484 154 2490 160 2528 251 2512 246 2517 178 2535 11
5 2172 51
1 2488 18
32 2492 47 2471 33
1 2489 11
1355 2518 98 2489 528 2492 95 2516 58
14 2489 84
3559 2515 74 2527 123 2506 208 2493 157 2517 113 2481 163 2487 233 2530 256
344 2531 42 2493 227 2505 208 2530 45 2487 56
1918 2475 232 2514 242 2509 269 2495 154
4 2172 27
2687 2507 269 2523 349 2514 209 2489 155 2544 142 2545 48 2495 126
768 2514 212 2475 147 2511 154 2476 45
2012 2514 133 2526 284 2493 211 2476 166 2510 154 2519 84
446 2528 116 2498 246
2176 2488 391 2529 218 2522 108 2521 150 2172 82
4122 2509 209 2520 153 2544 51 2550 167 2510 212 2526 48 2538 280 2511 133 2507 242 2475 80
13 2505 74 2530 36
249 2518 192 2492 126 2503 58 2489 9 2524 44
1880 2528 81 2533 148 2481 114 2505 113 2527 102 2498 178
2664 2492 284 2524 331 2503 98 2516 192 2522 45 2537 245
1742 2526 169 2531 128 2493 403 2511 84 2534 85
22 2514 153
3546 2178 231 2513 150 2540 291 2172 358 2536 98 2529 252 2525 33
3670 2492 218 2555 149 2537 148 2553 25 2518 45 2551 224 2494 64 2548 125 2513 108 2529 296 2488 129
3064 2489 233 2532 42 2509 349 2524 185 2545 134 2541 108
2551 2541 225 2523 185 2516 44 2554 99 2518 331 2537 109 2559 12 2489 127
2 2521 33
2490 2552 124 2519 169 2538 96 2549 161 2511 284 2534 98 2514 48
442 2517 102 2533 39 2530 69 2505 123
2550 2543 22 2558 147 2512 116 2517 81 2533 221 2557 122 2498 251
3147 2521 252 2548 41 2555 156 2560 116 2522 296 2513 218 2540 126
4204 2533 231 2542 181 2515 36 2531 264 2571 33 2506 45 2527 69 2564 193 2539 99 2505 256 2572 181 2547 325
1823 2534 124 2493 65 2506 42 2547 167 2530 264 2539 71 2542 9 2519 128
3 2523 42
2082 2530 231 2542 13 2565 30 2558 205 2517 148 2571 48 2527 39 2528 221 2564 181
2035 2561 68 2531 124 2526 98 2519 85 2547 264 2546 11 2549 118
1 2498 11
16 2521 98
1362 2553 65 2554 110 2522 148 2518 245 2524 109
860 2552 104 2514 280 2550 126 2526 96
79 2531 71 2530 99
2283 2233 217 2529 126 2211 91 2521 291 2569 177 2566 7 2560 162 2178 58
3958 2573 185 2584 171 2562 368 2545 222 2582 39 2523 108 2524 225 2554 160
94 2533 13 2530 181 2531 9
2 2528 22
434 2514 51 2509 142 2550 63 2545 83
1338 2541 222 2544 83 2550 168 2509 48 2562 84 2523 134
1 2534 11
2599 2530 325 2531 167 2572 151 2561 7 2570 173 2580 143 2534 264 2567 37
77 2529 41 2522 125
934 2561 121 2552 152 2534 118 2526 161
2531 2538 126 2514 167 2562 142 2552 111 2544 63 2545 168 2563 362 2578 33
2143 2554 84 2581 122 2522 224 2576 110 2553 140 2573 22 2555 238
3539 2561 196 2579 118 2550 111 2538 104 2526 124 2577 246 2563 190 2549 152
734 2522 25 2551 140 2554 199 2537 65
3565 2541 160 2568 30 2524 99 2537 110 2573 442 2551 84 2582 156 2559 50 2553 199
1745 2560 169 2529 156 2522 149 2551 238 2576 223 2566 23 2574 59
1 2211 17
3215 2571 264 2558 367 2590 274 2528 122
1482 2528 147 2557 367 2533 205 2571 78
20 2554 50 2524 12
1163 2540 162 2574 175 2569 68 2529 116 2555 169 2566 56
1339 2534 68 2552 196 2577 122 2567 84 2547 7 2570 178 2549 121
2580 2578 118 2541 368 2591 147 2589 90 2550 142 2545 84 2584 97 2593 104
2108 2578 206 2575 10 2550 362 2589 66 2579 181 2552 190
782 2571 271 2533 181 2530 193
2 2533 30
16 2560 56 2540 7 2555 23
130 2561 84 2570 108 2547 37
2 2554 30
3023 2596 278 2601 97 2574 213 2233 63 2249 305 2267 32 2540 177 2560 68
1413 2561 178 2577 56 2567 108 2587 39 2547 173 2580 246
3489 2564 271 2599 236 2558 78 2590 146 2533 48 2557 264 2588 226 2572 166 2530 33
1197 2580 8 2547 151 2588 95 2571 166 2530 181
1172 2582 127 2551 22 2554 442 2581 151 2541 185
2645 2555 59 2569 213 2576 388 2610 7 2601 223 2560 175 2605 65 2609 88
1 2563 10
3154 2551 110 2583 78 2555 223 2605 152 2581 321 2574 388
1657 2561 122 2570 56 2579 150 2552 246 2585 14 2592 243 2580 38
270 2562 118 2589 19 2563 206 2550 33
1826 2552 118 2612 20 2563 181 2592 270 2577 150 2613 110 2589 243
3781 2577 38 2603 91 2570 246 2588 113 2572 8 2587 79 2547 143 2592 122 2604 396
4052 2611 163 2582 140 2551 122 2583 64 2573 151 2608 15 2597 167 2586 82 2605 69 2576 321 2615 110
2135 2541 39 2594 79 2554 156 2597 105 2573 127 2591 126 2598 126 2581 140 2584 48
55 2576 78 2581 64
432 2582 48 2562 97 2541 171 2591 110
1 2577 14
10 2581 82
27 2570 39 2580 79
1238 2571 226 2603 219 2572 95 2580 113 2599 121
2015 2593 46 2563 66 2562 90 2578 19 2595 63 2579 243 2612 202 2602 164
2323 2571 146 2600 347 2599 145 2557 274
3143 2584 110 2598 438 2593 383 2602 140 2582 126 2562 147 2606 124 2624 142
2588 2579 270 2604 158 2577 243 2580 122 2616 174 2613 163
1833 2606 76 2562 104 2602 156 2589 46 2591 383
37 2582 79 2597 41
25 2589 63
3981 2569 278 2601 314 2607 162 2267 221 2312 156 2626 131 2609 56
1968 2581 167 2618 152 2598 137 2611 347 2594 41 2582 105
1869 2597 137 2591 438 2618 197 2582 126 2624 52
2663 2588 121 2614 56 2617 232 2590 145 2571 236 2603 265 2600 65
2234 2631 139 2590 347 2621 80 2625 128 2617 89 2599 65
965 2569 97 2574 223 2596 314 2609 132
1101 2624 74 2591 140 2593 156 2589 164 2612 187
3979 2620 50 2599 265 2604 147 2617 111 2588 219 2629 385 2580 91
3367 2580 396 2630 102 2592 158 2603 147 2619 67 2629 108 2616 169 2620 57
897 2615 153 2581 69 2609 207 2576 152 2574 65
136 2593 76 2591 124
20 2596 162
1 2581 15
3790 2574 88 2596 56 2610 9 2632 90 2615 255 2641 126 2626 241 2601 132 2634 145 2605 207 2622 29
1 2609 9 2574 7
3242 2615 264 2581 163 2618 158 2644 49 2597 347 2627 57 2645 82 2640 122
4128 2647 221 2642 142 2579 20 2613 293 2637 88 2602 187 2624 267 2589 202 2623 187 2633 19
2085 2592 163 2612 293 2647 12 2579 110 2639 106 2616 260 2628 60
36 2599 56 2617 133
2343 2605 153 2627 136 2634 93 2611 264 2581 110 2644 160 2609 255
3609 2648 266 2613 260 2630 151 2604 169 2639 117 2638 193 2592 174
3406 2629 185 2631 259 2625 98 2600 89 2614 133 2599 232 2603 111 2649 171 2621 13
2401 2598 197 2597 152 2645 29 2611 158 2635 112 2640 193 2643 10 2624 114
12 2604 67
18 2604 57 2603 50
9 2617 13 2600 80
2 2609 29
50 2612 187
3061 2637 49 2598 52 2602 74 2642 152 2591 142 2612 267 2635 184 2618 114
506 2617 98 2662 49 2600 128 2631 180
1423 2632 22 2312 41 2636 144 2596 131 2609 241 2641 157
91 2615 136 2611 57
26 2613 60
3631 2630 314 2604 108 2603 385 2617 185 2650 286 2649 89 2658 3
2033 2629 314 2664 87 2663 62 2650 71 2616 151 2604 102 2638 471
3157 2600 139 2649 171 2617 259 2625 180 2662 209
10 2626 22 2609 90
1 2612 19
3381 2609 145 2676 25 2615 93 2644 194 2641 426 2659 80 2656 447 2670 88 2651 46
1905 2660 112 2640 259 2618 112 2642 214 2624 184
2657 2312 314 2659 244 2321 187 2626 144 2641 170
83 2612 88 2624 49
2269 2648 234 2616 193 2663 104 2630 471
527 2616 117 2613 106 2648 166 2647 80
3236 2646 31 2661 166 2618 193 2644 112 2645 52 2660 98 2654 269 2611 122 2635 259
2654 2626 157 2636 170 2609 126 2659 160 2634 426
3036 2657 156 2624 152 2612 142 2647 241 2635 214 2669 43 2660 96 2652 16 2666 232
1 2618 10
2536 2611 49 2656 160 2654 229 2634 194 2645 63 2640 112 2615 160
86 2618 29 2611 82 2644 63 2640 52
2 2640 31
1847 2648 126 2639 80 2653 13 2642 241 2612 221 2657 273 2613 12
4063 2638 234 2671 271 2655 45 2674 193 2616 266 2657 161 2663 159 2647 126 2639 166 2682 48
1247 2650 173 2631 171 2617 171 2665 96 2629 89 2662 74
3757 2680 4 2673 147 2630 71 2665 219 2664 293 2629 286 2649 173 2658 29
3 2634 46
1 2642 16
1 2647 13
3371 2660 77 2656 14 2678 172 2640 269 2661 58 2684 173 2668 258 2644 229
2 2648 45
4507 2687 177 2693 175 2670 114 2675 150 2668 186 2688 13 2683 264 2654 14 2634 447 2644 160 2686 50 2676 49
2996 2674 264 2669 8 2647 273 2642 156 2648 161 2666 344
4 2650 29 2629 3
2039 2351 21 2641 160 2676 33 2636 244 2675 196 2634 80 2321 83
1818 2635 112 2677 360 2678 16 2654 77 2640 98 2642 96 2681 25 2661 114 2666 25
386 2660 114 2640 166 2654 58
2908 2685 226 2631 209 2625 49 2679 11 2672 90 2665 175 2649 74
3349 2671 223 2630 62 2667 94 2648 159 2638 104 2689 181 2664 411 2698 117
2908 2673 225 2650 293 2698 206 2663 411 2630 87
1969 2673 235 2650 219 2649 96 2692 123 2662 175 2685 77 2672 35
2133 2690 240 2657 344 2677 246 2642 232 2660 25 2674 49
11 2663 94
1154 2683 39 2654 258 2684 110 2656 186
18 2642 43 2657 8
144 2634 88 2656 114
2182 2663 223 2689 256 2682 169 2648 271
39 2665 35 2662 90
2741 2680 215 2698 214 2664 225 2691 50 2692 214 2650 147 2665 235
2040 2715 97 2690 105 2657 264 2701 290 2648 193 2682 563 2666 49
2691 2687 206 2351 344 2656 150 2659 196 2676 117
142 2659 33 2675 117 2656 49 2634 25
3231 2678 106 2690 137 2697 217 2666 246 2681 109 2695 111 2660 360
2071 2660 16 2654 172 2695 164 2707 229 2697 44 2677 106 2684 229 2705 25
1 2662 11
48 2650 4 2673 215
61 2697 6 2660 25 2677 109
2480 2715 61 2671 169 2648 48 2689 243 2674 563
1358 2668 39 2699 142 2656 264 2693 243 2684 125 2686 35
2719 2704 81 2654 173 2699 260 2678 229 2668 110 2683 125 2705 222
1432 2694 383 2665 77 2692 213 2662 226
27 2656 50 2683 35
3038 2351 38 2717 141 2656 177 2693 132 2675 206 2703 201 2700 267 2696 18
1 2656 13
3459 2663 181 2702 319 2682 243 2671 256 2715 121 2718 78 2698 46
1833 2697 118 2666 240 2706 83 2677 137 2701 156 2709 113 2674 105
4 2673 50
1772 2698 31 2694 113 2710 224 2665 123 2673 214 2685 213
1293 2699 68 2687 132 2683 243 2703 271 2656 175
3463 2710 160 2726 55 2692 113 2724 21 2716 189 2685 383
284 2697 89 2678 164 2677 111
1 2687 18
2840 2677 217 2695 89 2709 251 2706 40 2690 118 2707 208 2678 44 2681 6 2714 161
3075 2708 382 2689 46 2702 113 2673 214 2663 117 2664 206 2692 31 2710 145 2720 71
2031 2684 260 2693 68 2703 158 2683 142 2704 305
1683 2351 107 2687 267 2717 6 2719 158 2373 208
3448 2731 221 2746 202 2715 164 2735 71 2674 290 2723 243 2690 156 2709 112 2711 38
2276 2689 319 2708 296 2718 90 2698 113 2725 143
3949 2704 131 2693 271 2699 158 2687 201 2730 180 2738 132 2717 382
2442 2722 86 2728 163 2699 305 2713 21 2730 97 2703 131 2707 131 2684 81 2705 91
627 2704 91 2678 25 2684 222 2707 113
64 2709 17 2697 40 2690 83
2862 2678 229 2705 113 2735 34 2697 208 2712 103 2714 8 2722 224 2727 227 2709 71 2704 131
2801 2721 17 2725 63 2698 382 2702 296 2718 38 2734 116 2720 115
2579 2706 17 2690 113 2697 251 2735 206 2714 56 2707 71 2701 112 2723 235
3229 2724 153 2716 7 2729 16 2726 151 2692 224 2698 145 2694 160 2720 272 2737 137
2 2701 38
28 2707 103
1 2704 21
47 2709 56 2697 161 2707 8
3025 2674 97 2718 162 2689 121 2725 221 2731 242 2745 139 2682 61 2739 221 2701 164
521 2726 97 2694 189 2710 7 2724 133
1819 2738 78 2687 141 2736 107 2700 6 2719 152 2703 382
910 2725 354 2702 90 2689 78 2715 162 2708 38
2541 2717 152 2732 65 2736 159 2433 209 2403 239 2373 150 2700 158
2290 2708 115 2737 164 2698 71 2740 14 2710 272 2734 320
2 2708 17
2800 2704 86 2727 27 2728 101 2741 136 2730 116 2707 224 2735 55 2733 16 2744 174 2742 13
2323 2746 180 2709 235 2735 356 4505 234 2701 243 2741 76
990 2716 133 2710 153 2694 21 2726 285
3581 2749 331 2715 221 2718 354 2745 67 2702 143 2754 19 2708 63 2734 240
2560 2737 299 2755 7 2724 285 2710 151 2694 55 2747 145 2743 7 2757 87 2716 97
360 2735 171 2722 27 2707 227
170 2722 101 2730 37 2704 163
1 2710 16
2700 2704 97 2748 129 2703 180 2744 207 2728 37 4500 117 2738 79 2722 116
1892 2746 230 2715 242 2701 221 2745 213
7 2719 65
1 2722 16
2244 2749 38 2751 30 2750 309 2725 240 2708 116 2737 99 2720 320 2753 15
3717 2727 171 2741 233 2746 69 2722 55 2707 34 2709 206 2701 71 2723 356
1908 2748 62 4502 107 2717 107 2719 159 2738 165 2433 160
2719 2758 252 4506 55 2726 299 2750 42 2747 38 2757 58 2710 137 2720 164 2734 99
1952 2748 374 2717 78 2736 165 2756 80 2703 132 2730 79
74 2715 221
1 2720 14
2990 4504 166 2722 136 4512 108 2735 233 4505 119 4503 88 2744 98 2723 76 2742 8
2 2722 13 2741 8
1 2726 7
2041 2722 174 4503 227 4509 3 2730 207 4500 166 2741 98
2831 2749 60 4517 95 2715 139 4520 83 4507 21 2731 213 2725 67 2746 260 2759 313
3563 2701 202 2752 141 4505 14 2735 69 4520 74 2745 260 4519 17 2723 180 4510 333 2731 230
3109 4514 261 2757 233 4506 112 2737 38 2758 204 2755 3 2726 145
3454 4502 218 2736 62 2738 374 2730 129 2756 44 4518 162 4500 249 4516 114
1361 2750 215 2745 60 2734 38 4501 11 2725 331 2759 285
2991 2753 13 2749 215 4506 118 4511 271 4513 152 2737 42 2759 91 2734 309
2 2734 30
10 2746 141
2 2750 13 2734 15
1 2725 19
1 2726 7 2747 3
28 2738 80 2748 44
337 2726 87 2747 233 2737 58
1146 2747 204 2737 252 4506 189
2995 4515 12 4513 193 2745 313 2750 91 4517 206 2749 285
2277 1075 234 1085 106 2777 224 2785 146 1079 142 2779 122 2766 60 1060 31 2769 55
1143 1079 285 2776 54 2780 85 1084 153 1061 180 2773 24
1826 2765 277 1072 335 2771 109 2782 68 1066 88
4 1086 4 1065 56
6 1076 56
3234 2782 166 2768 443 1050 29 2762 277 2796 258 1072 208
13 1079 20 2760 60
2988 1082 80 2789 14 2774 271 2778 145 1077 289 2808 117 2798 107
2233 3138 114 2802 163 2803 19 1050 56 2809 111 2765 443 2796 37 1423 220
3309 1076 146 2777 304 2790 103 2791 45 2760 55 1075 14 2788 13 1086 369 2786 107 1065 112 2784 271
299 2778 92 1076 123 1063 115
1278 1082 107 2762 109 2774 59 2782 352 1066 180
3 1084 13
3 2761 24
3382 2804 16 2771 59 2805 237 2782 123 2808 137 2767 271 1082 298
16 1082 94
1926 2807 223 2761 54 2787 199 2797 8 2780 255 1084 252 2783 222
1941 2790 69 2769 304 2760 224 2800 156 2785 150 2786 100
3301 1076 178 2784 98 2798 78 2795 342 1063 298 2793 96 1077 23 2767 145 2770 92 2801 15
2175 2792 141 2760 122 2785 80 2781 21 1079 296 2799 202
903 2776 255 2787 96 1079 108 2761 85
1 2779 21
3387 2765 166 2771 352 2774 123 2762 68 2806 247 2819 110 2805 89 2811 100 2794 19 2796 176
1197 1084 103 2807 115 2776 222
2721 2769 271 2793 220 2815 134 2814 174 2790 90 2791 40 2812 30 2778 98 1076 98
1219 2800 292 2779 80 2777 150 2760 146 2799 86
143 2769 107 2777 100 2790 24
3114 2807 196 2823 124 1079 131 2780 96 2792 195 2799 369 2776 199
1 2769 13
1 2767 14
2216 2800 240 2812 151 2814 296 2777 69 2828 119 2784 90 2786 24 2831 173 2769 103
17 2784 40 2769 45
608 1079 37 2787 195 2779 141 2799 29
4154 2827 24 2816 121 2830 306 2784 220 2778 96 2815 241 2795 565 2839 105 2832 97 2810 71
1 2782 19
2320 2778 342 2801 5 2793 565 2816 60 2798 86
2775 2802 141 2820 224 2765 258 2811 214 2782 176 2817 154 2768 37 2826 29
1 2776 8
1148 2767 107 2816 174 2808 193 2795 86 2778 78
4455 2838 158 2825 75 2836 175 2823 154 2848 13 2821 262 2800 194 2813 69 2785 86 2792 29 2787 369 2779 202
3107 2836 88 2785 292 2828 136 2825 184 2777 156 2790 240 2799 194
3 2778 15 2795 5
2141 2820 159 2768 163 2829 163 2840 27 2796 141 2809 274
1 2768 19
1 2774 16
2413 2824 168 2774 237 2822 104 2806 148 2819 175 2808 144 2818 132 2833 84 2782 89
177 2805 148 2782 247
3317 2776 223 2787 196 2834 318 2783 115 2823 148
1512 2805 144 2767 117 2824 108 2816 76 2818 4 2774 137 2798 193
1672 3169 126 2768 111 2829 67 3181 72 2802 274 3165 17 3138 228
5 2793 71
2751 2796 214 2819 389 2847 90 2820 172 2782 100 2852 88 2817 108 2826 2
117 2790 151 2814 106 2784 30
5 2799 69
3324 2815 360 2790 296 2846 80 2784 174 2841 12 2831 61 2842 197 2812 106
3407 2846 178 2857 122 2793 241 2784 134 2830 250 2814 360
2185 2839 206 2808 76 2832 122 2795 60 2798 174 2793 121 2824 76
153 2811 108 2796 154
77 2808 4 2805 132
3320 2811 389 2852 166 2837 318 2782 110 2805 175 2833 88 2822 95
2535 2811 172 2796 224 2840 274 2802 159 2847 141
95 2799 262
95 2819 95 2805 104
3357 2872 18 2866 165 2807 148 2787 124 2799 154 2854 110 2835 18 2834 175 2838 333
1979 2851 163 2816 76 2839 123 2837 237 2808 108 2833 5 2805 168
476 2799 75 2800 184 2836 124
2 2811 2 2796 29
1 2793 24
1232 2849 86 2831 125 2790 119 2836 81 2800 136 2850 88
782 2809 67 2802 163 3181 153 2840 163
2777 2815 250 2839 183 2857 143 2793 306 2858 222
810 2849 188 2814 61 2790 173 2828 125 2846 105
250 2816 122 2793 97 2839 142
170 2805 84 2837 42 2819 88 2824 5
1529 2854 134 2823 175 2844 16 2807 318
1 2823 18
2044 2850 244 2861 149 2828 81 2848 33 2800 88 2825 124 2838 122 2799 175
2836 2851 91 2860 418 2824 237 2819 318 2852 152 2833 42
3337 2866 284 2848 158 2861 184 2799 158 2894 40 2845 57 2836 122 2823 333 2867 266
3246 2830 183 2851 166 2843 83 2858 225 2816 206 2824 123 2832 142 2793 105
3677 2802 27 2874 173 2856 585 2820 274 2829 163 2847 389 3181 190
1 2814 12
269 2846 91 2814 197
12 2839 83
1 2834 16
5 2838 57
1806 2831 105 2814 80 2849 172 2859 102 2865 65 2857 66 2863 193 2842 91 2815 178
3172 2820 141 2869 334 2852 201 2856 39 2874 101 2811 90 2840 389 2853 114 2889 67
107 2838 158 2836 33 2799 13
2156 2831 188 2828 86 2868 171 2846 172 2850 227 2870 91 2862 28 2863 146
3942 2870 160 2836 244 2849 227 2887 8 2881 166 2828 88 2855 20 2885 225 2861 321
4108 2858 93 2837 91 2892 175 2860 344 2824 163 2839 166 2871 259 2882 212
2418 2837 152 2847 201 2819 166 2811 88 2880 78 2864 42 2860 143 2869 229
9 2847 114
1690 2834 134 2866 104 2872 50 2890 82 2823 110
1 2850 20
1109 2873 212 2874 95 3181 31 2847 39 2840 585
3693 2815 122 2865 268 2888 192 2875 276 2858 135 2846 66 2830 143 2896 136 2877 126
2888 2851 93 2871 266 2839 225 2875 135 2857 135 2830 222 2878 69 2879 28
19 2846 102
3430 2852 143 2837 418 2880 141 2851 344 2876 12 2882 203
3991 2867 260 2836 149 2894 163 2838 184 2885 218 2850 321 2901 67
2 2849 28
2619 2849 146 2868 328 2846 193 2893 202 2865 337 2888 106
6 2852 42 2869 3
1146 2863 337 2888 39 2846 65 2857 268
3653 2872 161 2867 142 2886 17 2854 104 2823 165 2897 134 2894 184 2890 43 2838 284
1674 2861 260 2866 142 2838 266
3574 2849 171 2893 399 2899 187 2891 50 2863 328 2881 298 2870 46
3141 2852 229 2880 298 2909 68 2884 87 2847 334 2889 206 2907 96 2864 3
493 2849 91 2868 46 2881 109 2850 160
3618 2903 60 2851 259 2858 266 2878 338 2875 323 2892 209 2898 153
195 2854 50 2866 161 2823 18
2201 3181 130 2874 131 2856 212 3212 240 2883 236 3240 74
4372 2900 36 2856 95 2904 125 2883 237 2840 173 2847 101 2873 131 2889 398 2908 170 2912 9
2794 2906 220 2871 323 2858 135 2857 276 2898 84 2878 25 2896 215
1 2860 12
42 2857 126
687 2871 338 2875 25 2858 69 2898 175
2 2858 28
4219 2869 298 2882 275 2910 122 2860 141 2892 104 2852 78 2907 328
1210 2885 54 2899 88 2895 55 2887 2 2850 166 2870 109 2868 298
1470 2892 164 2880 275 2851 212 2860 203
1862 2874 237 2873 236 2904 149 3240 106 3255 56
22 2869 87
1721 2881 54 2861 218 2901 155 2895 216 2850 225
1 2866 17
1 2881 2 2850 8
1666 2896 47 2863 106 2906 173 2893 142 2857 192 2913 91 2865 39
2142 2869 206 2908 292 2874 398 2847 67 2909 208
406 2897 97 2866 43 2854 82
4 2868 50
1934 2910 275 2880 104 2882 164 2871 209 2902 13 2851 175 2903 96
1718 2913 127 2899 134 2919 29 2914 13 2915 90 2868 399 2863 202 2888 142
2762 2911 227 2861 163 2901 287 2866 184 2838 40 2897 140
2035 2917 182 2901 176 2899 268 2881 55 2885 216
561 2875 215 2888 47 2906 112 2857 136
3158 2911 313 2936 151 2866 134 2905 14 2890 97 2894 140
2460 2924 61 2903 151 2923 54 2878 175 2875 84 2871 153 2910 39 2906 218 2922 95
2060 2868 187 2919 171 2893 134 2917 180 2895 268 2881 88
2 2874 36
2986 2885 155 2917 95 2933 186 2927 128 2894 287 2895 176 2911 198 2861 67 2937 72
1 2892 13
471 2910 108 2871 60 2892 96 2898 151
3872 3259 44 3275 50 2883 149 2874 125 2941 355 2926 86 3255 452 2908 148 3288 221
1 2897 14
3204 2921 31 2935 20 2918 21 2888 173 2898 218 2875 220 2920 335 2922 207 2896 112 2913 143
2738 2909 306 2869 96 2910 182 2929 124 2880 328 2928 117
3563 2931 229 2904 148 2909 147 2874 170 2912 46 2934 171 2926 136 2889 292 2942 27
3619 2869 68 2947 40 2916 211 2908 147 2948 164 2889 208 2929 151 2931 95 2907 306
4097 2907 182 2923 70 2903 108 2898 39 2930 148 2928 29 2925 263 2940 91 2924 2 2880 122 2892 275
3516 2927 362 2894 227 2936 192 2897 313 2901 198
8 2908 46 2874 9
3373 2921 274 2915 257 2888 91 2914 15 2932 135 2945 158 2893 127 2906 143 2919 127
4 2913 15 2893 13
1086 2919 244 2913 257 2893 90
100 2909 211
2270 2939 207 2899 180 2919 183 2901 95 2895 182 2933 147
1 2906 21
2747 2915 244 2899 171 2939 124 2945 163 2917 183 2913 127 2952 308 2893 29
2775 2906 335 2935 60 2922 168 2949 200 2921 213 2953 111
1350 2920 213 2906 31 2945 64 2953 122 2913 274
1635 2923 202 2949 181 2943 75 2920 168 2898 95 2906 207
1416 2910 70 2924 37 2943 176 2922 202 2898 54 2925 240
72 2898 61 2910 2 2923 37
3351 2930 31 2923 240 2943 67 2938 43 2910 263 2956 3 2940 193 2950 295
401 2904 86 2934 1 2908 136 2941 149
2677 2937 116 2901 128 2936 64 2911 362 2951 107 2944 228 2933 28 2959 41
540 2910 29 2940 135 2907 117 2929 92
1001 2907 124 2928 92 2940 138 2947 85 2909 151
524 2910 148 2925 31 2971 138 2940 151 2950 81 2947 13
3324 2973 20 2934 208 2948 247 2977 120 2909 95 2968 113 2962 130 2908 229
13 2913 135
1830 2927 28 2951 158 2939 217 2937 53 2960 113 2917 147 2963 48 2901 186
1472 2908 171 2962 174 2926 1 2931 208 2941 324
15 2906 20 2920 60
3373 2897 151 2911 192 2944 167 2958 396 2927 64 2955 9 2959 200
229 2901 72 2927 116 2933 53
2 2925 43
2861 2957 32 2960 200 2952 249 2917 207 2919 124 2933 217
2786 2946 38 2928 135 2910 91 2947 218 2929 138 2950 92 2925 193 2930 151
2959 2934 324 2962 73 3288 64 2926 149 3300 292 2904 355
2 2908 27
2170 2970 92 2923 176 2925 67 2974 137 2922 75 2949 129 2950 120
537 2927 228 2959 78 2951 130 2936 167
1137 2952 85 2953 158 2921 64 2919 163 2913 158 2965 134 2961 56
2 2940 38
2282 2969 184 2940 218 2909 40 2948 213 2930 13 2971 145 2929 85
2190 2968 323 2947 213 2971 197 2909 164 2931 247
1892 2976 164 2922 181 2974 185 2920 200 2943 129 2953 143 2966 17
3850 2989 124 2970 220 2940 92 2943 120 2930 81 2971 130 2956 27 2987 122 2954 23 2925 295
1953 2927 107 2960 140 2978 225 2944 130 2959 127 2933 158
3648 2919 308 2980 128 2957 19 2939 249 2983 169 2945 85 2982 95 2965 213 2985 143 2960 57
3778 2976 224 2920 111 2921 122 2992 31 2949 143 2972 183 2964 19 2945 158 2965 232
2 2950 23
2 2936 9
3 2925 3 2950 27
4 2939 32 2952 19
2109 2975 13 2936 396 2984 207 2959 134
2970 2944 78 2996 130 2951 127 2927 41 2936 200 2984 124 2978 154 2958 134
2965 2952 57 3010 24 2933 113 3007 73 2980 277 2978 402 2963 54 2939 200 2951 140 2967 156
5 2945 56
2273 2941 73 2934 174 2931 130 3318 139 2977 163 3300 107 2995 123 2981 67 3330 79
49 2960 54 2933 48
1 2953 19
2223 2985 275 2991 41 2952 213 2972 21 2992 9 2998 12 2999 99 2953 232 2945 134
1 2949 17
19 2960 156
3467 3005 343 2931 113 2948 323 2977 288 2971 9 2986 54 2995 61 2994 78
445 2947 184 2971 192
1008 2993 54 2987 247 2943 92 2974 155 2950 220
3400 2989 164 2994 243 2930 138 2948 197 2947 145 2979 25 2968 9 2969 192 3001 145 2950 130
129 2953 183 2965 21 2992 99
1 2931 20
2171 2993 137 2949 185 2943 137 2997 15 2976 165 2992 178 2970 155
1 2958 13
1088 2992 229 2953 224 2974 165 2949 164
2085 2968 288 2962 163 2931 120 2995 265
3274 3007 117 2988 30 2951 225 3006 288 2996 34 2959 154 2960 402
2 2971 25
2509 2952 128 3007 145 3011 203 2960 277 3010 27 2985 270
4 2962 67
76 2985 48 2952 95
29 2952 169
2362 3004 142 3003 100 3002 140 2958 207 2959 124 2990 71 3013 134 2996 73
3661 2999 209 2980 270 3011 211 2965 275 3021 187 2982 48 2952 143 2998 107
4 2968 54
4163 2970 247 3001 90 2993 287 2950 122 3023 114 3020 149 3012 123 2989 294 3000 92
2 2978 30
1226 3001 125 2987 294 2971 164 2950 124
6 2984 71
3 2965 41
3955 2993 80 2965 9 3017 26 2999 318 2972 99 2976 229 2953 31 3018 26 3014 447 2974 178
2374 2987 287 3014 211 3016 51 3029 155 2992 80 2974 137 3020 215 2970 54
2183 2968 78 3034 20 3031 27 3025 142 3005 307 2971 243 3001 251
3060 3005 163 3318 191 3008 127 2977 265 2968 61 3026 209 3022 249 2962 123 3009 25
2925 3004 176 3003 68 2959 130 3013 137 3030 128 2984 73 3006 217 3027 257 2978 34
1 2974 15
43 2965 12 2985 107
1388 2965 99 3017 254 2992 318 2985 209 3021 32
12 2987 92
2518 2987 90 3040 43 2971 145 3023 205 3025 186 2989 125 2994 251 3015 70
110 2984 140 3004 73
161 2996 68 3004 52 2984 100
703 2996 176 3003 52 3013 72 3002 73 2984 142
2523 3034 111 2994 307 3031 31 3026 199 2968 343 2995 163
2266 2996 217 3027 78 3028 104 2978 288 3007 169 3024 42
2256 3011 204 3037 76 2960 73 3039 55 3006 169 2978 117 3010 31 2980 145 3028 252 3019 17
10 2995 127
2 2995 25
33 3007 31 2980 27 2960 24
2677 3021 38 2980 203 2985 211 3035 146 3007 204 3041 81 3039 138
42 2987 123
879 2996 137 3030 189 3004 72 2984 134
3171 3018 17 3029 290 3032 211 3016 36 2993 211 2992 447 3017 146
8 3001 70
6 3014 36 2993 51
3322 3046 220 3032 120 3052 227 3014 146 3021 237 2999 254 2992 26 3035 18
6 3014 17 2992 26
1 3007 17
2084 3038 276 3023 162 2993 215 2987 149 3029 236 3033 241
1553 3011 38 3035 227 3017 237 2999 32 2985 187
2538 3045 332 2995 249 3026 170 3318 150 3351 342 3361 17 3389 14 3373 122
1622 3020 162 3001 205 2987 114 3040 225 3033 221
14 3006 42
1324 3034 240 3001 186 3040 278 2994 142
3466 3045 240 2995 209 3043 41 3022 170 3051 226 3034 78 3048 150 3005 199
2648 2996 257 3030 84 3049 62 3028 163 3037 58 3006 78 3054 171 3056 181 3050 36
1389 3007 252 3027 163 3006 104 3037 314
3133 3020 236 3047 10 3014 290 2993 155 3059 282 3032 94 3038 251
2562 2996 128 3027 84 3013 189 3056 63 3036 89 3058 240
92 3034 97 2994 27 3005 31
1480 3046 221 3059 86 3029 94 3014 211 3017 120
2534 3040 10 3038 346 3060 230 3020 241 3023 221 3057 160
3091 3026 78 3005 111 3031 97 3064 84 3025 240 3061 258 3040 144 3048 159 3042 18 2994 20
2914 3068 268 3055 109 3041 63 3017 18 3011 146 3021 227 3039 96 3052 251
33 3030 89
3029 3068 45 3067 224 3050 49 3063 98 3027 58 3055 156 3028 314 3044 34 3039 171 3007 76 3054 51
2590 3053 68 3057 316 3059 14 3029 251 3033 346 3020 276
1095 3055 132 3011 138 3007 55 3035 96 3037 171
3923 3060 182 3072 25 3034 144 3023 225 3075 213 3025 278 3033 10 3064 210 3001 43
30 3011 81 3035 63
1 3034 18
3 3045 10 3026 41
2 3037 34
2207 3373 154 3043 10 3080 327 3051 6 3026 240 3414 10 3022 332 3409 53
2308 3052 281 3069 90 3059 65 3032 221 3017 220 3071 226
1 3029 10
1905 3034 159 3070 201 3051 261 3061 146 3026 150 3083 27
4 3027 62
126 3037 49 3054 55 3027 36
4150 3443 80 3086 25 3093 143 3062 63 3026 226 3045 6 3083 191 3048 261 3080 330
2308 3069 13 3068 97 3074 77 3035 251 3017 227 3079 77 3046 281
11 3038 68
3878 3067 324 3063 113 3078 45 3091 140 3082 287 3050 55 3037 51 3087 112 3056 324 3027 171
1139 3068 153 3037 156 3039 132 3035 109
2840 3087 145 3089 142 3054 324 3077 129 3078 59 3065 77 3030 63 3058 225 3027 181
3910 3033 160 3097 85 3073 152 3081 173 3076 231 3084 52 3085 19 3094 111 3059 107 3060 223 3038 316
1615 3065 186 3056 225 3077 36 3030 240
2273 3066 18 3057 107 3032 86 3038 14 3029 282 3076 327 3046 65 3071 140
1432 3081 154 3040 182 3075 145 3033 230 3057 223
1273 3064 83 3048 146 3070 184 3034 258
14 3051 63
97 3037 98 3054 113 3067 2
3020 3040 210 3099 197 3075 272 3034 84 3070 257 3100 21 3061 83
401 3056 77 3058 186 3077 110
1 3059 18
2498 3068 111 3091 182 3079 130 3037 224 3090 88 3054 324 3063 2
2613 3055 153 3037 45 3067 111 3052 97 3035 268 3079 458
96 3052 13 3071 41 3074 19 3046 90
2783 3064 257 3048 201 3099 115 3061 184 3083 376
3210 3107 62 3074 275 3092 17 3076 102 3069 41 3096 127 3095 125 3046 226 3059 140 3104 9
2 3040 25
30 3057 152
3649 3107 227 3071 275 3465 73 3069 19 3052 77 3079 138 3095 412 3088 284
3637 3081 338 3064 272 3040 213 3106 106 3099 149 3060 145
3510 3057 231 3059 327 3071 102 3084 111 3085 4 3096 221 3094 252
3379 3065 110 3087 278 3089 92 3058 36 3476 171 3056 129 3468 262
29 3054 45 3056 59
2509 3067 130 3091 161 3068 458 3074 138 3052 77 3088 412
4027 3045 327 3436 172 3051 330 3438 193 3443 43 3419 92 3414 32 3409 213
2942 3098 159 3466 100 3057 173 3106 175 3075 338 3060 154 3097 42
394 3087 124 3054 287
3090 3108 167 3051 191 3099 45 3105 157 3086 3 3048 27 3093 215 3070 376 3472 190
45 3076 111 3057 52
2 3057 19 3076 4
2 3051 25 3083 3
3703 3101 171 3468 46 3056 145 3089 81 3103 222 3476 107 3077 278 3054 112 3082 124 3091 53
4357 3465 218 3074 284 3091 161 3111 58 3079 412 3474 147 3473 204 3102 37 3478 81
288 3056 142 3077 92 3087 81
205 3067 88 3091 147
3199 3067 182 3471 21 3079 161 3473 132 3090 147 3088 161 3087 53 3101 402 3054 140 3475 21
1 3071 17
1694 3464 47 3443 123 3105 171 3083 215 3051 143 3436 95 3458 170
2537 3104 313 3098 88 3110 279 3097 87 3096 219 3076 252 3057 111
430 3071 125 3074 412
1508 3071 127 3076 221 3094 219 3104 102
286 3057 85 3094 87 3098 54 3081 42
1920 3106 260 3487 59 3081 159 3097 54 3479 99 3094 88 3469 7 3110 124
2813 3075 149 3481 150 3470 17 3070 115 3083 45 3064 197 3108 288 3106 200
2 3064 21
2797 3087 171 3091 402 3476 133 3475 310 3103 135
8 3088 37
396 3101 135 3087 222
3427 3094 313 3071 9 3497 17 3110 307 3107 317 3477 106 3495 98 3096 102 3485 220
2632 3083 157 3482 39 3109 10 3490 112 3093 171 3458 170 3489 235 3472 94
3204 3481 168 3075 106 3081 175 3492 78 3099 200 3479 87 3466 73 3467 8 3098 260 3487 71
3219 3104 317 3485 105 3071 62 3074 227 3474 376 3465 86
2165 3470 2 3488 201 3099 288 3480 17 3481 66 3083 167 3472 183
1 3105 10
3363 3469 16 3479 138 3094 279 3491 237 3104 307 3497 33 3098 124 3495 188
4 3088 58
1 1423 11
12 1414 47
2629 3127 101 3122 159 1410 31 3134 140 3136 159 1411 51 1413 124 1415 255
4206 3145 193 1418 311 3154 141 3144 16 3125 206 3148 122 4165 157 3124 275 3132 41 1406 135
13 1413 96
20 1426 99 1414 15 3118 66
3352 3131 96 3117 66 3139 12 3135 221 3128 185 3146 138 1426 148 1414 375
1470 1412 184 3127 72 1410 141 3137 136 3130 157
37 1413 37 1407 77
3521 1423 207 3147 181 1420 321 3133 105 1404 120 3159 55 3138 264
484 1413 122 3123 118 3134 78 3114 159
3675 3128 166 3142 295 3134 208 1407 180 3152 46 3156 87 1413 175 3122 118 3126 125 3157 38
2876 3148 133 3125 79 3135 154 3115 275 1426 153 3154 153 1406 80 3151 127
171 3124 79 1406 86 3115 206
103 1413 67 3123 125
2756 1410 273 3119 72 3114 101 3136 415 3137 315
3551 3123 166 3118 185 3143 16 3146 156 3152 180 1414 179 1407 215
2 1426 37
3178 3137 269 3140 30 1412 31 3133 264 3161 308 1420 92 3147 148 3119 157 3160 38
228 3135 102 3118 96 1426 77
2 3115 41
1099 3121 105 1420 143 3147 151 3130 264
2118 3136 160 3122 78 3150 13 3114 140 3123 208 3155 51 3142 195
2556 3162 140 3124 154 3118 221 3151 87 3146 277 1426 133 3131 102
3304 3167 77 3127 415 3155 249 3134 160 3153 24 3114 159 3137 134
3466 3172 156 3130 269 3136 134 3167 126 3161 75 3127 315 3164 233 3119 136 3141 22
3451 3159 121 1423 203 2809 228 3165 246 3121 264 3149 6 2768 114 3169 10
1 3118 12
2 3130 30
1 3137 22
3337 3156 250 3134 195 3177 104 3174 3 3173 192 3123 295 3155 80
1 3128 16
1 3115 16
2643 3158 74 3154 193 3115 193 4172 102 4165 123 3176 19 3175 310
2509 3162 195 3118 138 3128 156 3135 277 3152 119 3166 165
1024 3121 181 3133 151 3159 154 3161 51 3130 148
234 3124 133 3115 122 3154 93
1 3138 6
1 3134 13
473 3124 127 3135 87 3154 42 3162 139
3476 3123 46 3192 162 3166 241 3156 274 3168 57 3185 124 3178 104 3128 180 3191 100 3146 119
2 3136 24
2522 3179 25 3151 42 3171 166 3124 153 3148 93 3115 141 3162 14 3145 193 3170 46 3180 71 3176 144
3671 3134 51 3142 80 3167 107 3173 359 3136 249 3172 364
2080 3152 274 3142 250 3123 87 3185 111 3157 44 3177 165 3168 38 3174 10 3163 69
16 3156 44 3123 38
14 3145 74
2471 3147 154 3161 116 3121 55 3165 213 3193 135 3138 121 3182 90
4 3130 38
2542 3137 75 3159 116 3194 85 3164 169 3147 51 3196 45 3182 240 3186 90 3130 308
2706 3188 207 3151 139 3135 140 3154 14 3166 137 3146 195 3179 239 3170 141
7 3156 69
1630 3137 233 3161 169 3172 195 3186 235 3190 14
2117 3169 37 3197 150 3193 147 3202 27 3181 346 3138 246 3159 213 3183 19 2809 17
1711 3192 156 3162 137 3146 165 3188 91 3152 241
346 3136 77 3172 22 3137 126 3155 107
11 3156 38 3152 57
100 3138 10 3165 37 2809 126
233 3162 141 3179 84 3154 46
148 3179 95 3154 166
4087 3137 156 3155 364 3167 22 3186 200 3206 42 3216 95 3164 195 3173 111 3205 320
1557 3142 192 3172 111 3205 35 3184 367 3177 5 3155 359
1 3156 10 3142 3
1573 3145 310 4172 18 3176 120 4194 23 3189 354
2547 3175 120 3180 260 3145 19 3221 95 3201 185 3189 142 3207 78 3154 144
1951 3184 323 3156 165 3173 5 3142 104 3211 97 3185 302
10 3152 104
3680 3219 35 3180 256 3199 188 3170 84 3223 199 3154 25 3188 170 3201 215 3162 239 3171 95
1432 3154 71 3176 260 3201 152 3179 256
3063 3165 346 2829 153 2809 72 2873 130 3212 179 2840 190 3197 237 3220 12 2856 31
1203 3159 90 3196 179 3161 240 3193 146
2 3165 19
3567 3215 277 3177 323 3211 59 3195 16 3173 367 3205 179
2922 3213 9 3214 96 3177 302 3156 111 3152 124 3192 199 3211 104 3191 26
3303 3194 84 3172 200 3196 410 3161 90 3216 75 3164 235 3187 42 3222 152
3 3186 42
3680 3179 170 3225 123 3208 92 3200 238 3199 81 3223 115 3166 91 3192 92 3162 207 3224 108
3320 3175 354 3221 200 4234 21 3176 142 4172 104 4218 152 4185 356
1 3164 14
139 3192 70 3152 100 3185 26
2814 3200 77 3191 70 3188 92 3213 168 3166 156 3152 162 3209 308 3198 15 3185 199
2184 3226 115 3159 135 3203 32 3165 147 3182 146 3212 128 3202 91 3197 117 3196 59 3210 106
210 3196 70 3186 84 3161 85
1 3184 16
4151 3193 59 3182 179 3231 77 3222 122 3228 151 3233 320 3186 410 3161 45 3204 46 3194 70 3210 280
912 3212 120 3165 150 3193 117 3181 237
1 3192 15
327 3188 81 3179 188
1091 3225 24 3188 238 3209 274 3208 3 3192 77
2959 3179 215 3219 271 3176 185 3207 212 3221 106 3218 17 3180 152
22 3193 91 3165 27
2 3193 32
3 3196 46
2101 3172 320 3173 35 3227 114 3216 247 3184 179 3215 68
4 3216 14 3172 42
252 3201 212 3221 179 3176 78
18 3188 92 3200 3
2590 3192 308 3213 67 3200 274 3237 198 3242 16 3225 173 3229 240
1034 3231 106 3193 106 3228 71 3226 54 3196 280
3289 3214 39 3232 12 3215 318 3213 138 3185 104 3184 59 3177 97 3227 154 3247 111 3236 271
1693 3181 179 3226 185 3197 120 3220 1 3240 85 2873 240 3193 128
2242 3209 67 3192 168 3229 276 3236 131 3217 46 3214 142 3211 138 3185 9
263 3213 142 3211 39 3185 96
1456 3205 68 3227 166 3211 318 3184 277
2840 3222 150 3172 95 3233 81 3186 75 3206 14 3243 114 3227 333 3241 89 3205 247
9 3213 46
1 3201 17
2291 3238 41 3239 232 3234 215 3221 194 3201 271 3223 5 3179 35
1 3181 12 3212 1
3807 3207 179 4234 37 3189 200 4256 221 4218 238 4243 142 3239 130 4233 50 3201 106 3219 194 3176 95
754 3196 122 3233 80 3186 152 3216 150
3228 3219 5 3234 200 3235 43 3179 199 3188 115 3248 188 3224 66 3246 15 3225 273 3250 139
164 3188 108 3223 66 3225 60
2358 3237 137 3188 123 3200 24 3224 60 3223 273 3230 34 3246 113 3209 173
2147 3210 54 3231 148 3212 185 3249 130 3240 119 3193 115 3245 46
3738 3260 51 3244 13 3211 154 3241 33 3247 389 3243 193 3215 166 3216 333 3205 114
364 3196 151 3210 71 3231 130
1510 3236 66 3209 240 3242 259 3213 276
2 3225 34
1712 3226 148 3196 77 3233 70 3210 106 3245 224 3228 130
1 3211 12
3073 3243 283 3261 65 3196 320 3231 70 3222 80 3216 81 3245 131 3253 160
1952 3219 215 3223 200 3251 181 3248 190 3239 169
2 3223 43
3296 3242 129 3229 66 3258 167 3254 35 3211 271 3257 135 3213 131 3247 93
1998 3225 137 3250 192 3209 198 3242 210 3252 59 3246 61
10 3219 41
3327 3264 120 3234 169 3221 130 4288 204 3251 186 3219 232 4256 164
1680 3226 119 3255 238 2883 106 2873 74 3212 85 3249 63
91 3243 25 3216 89 3227 33
2994 3236 129 3256 99 3237 210 3229 259 3250 141 3257 257 3270 168 3209 16
2832 3261 199 3260 408 3233 283 3227 193 3216 114 3241 25
1 3227 13
2636 3233 131 3255 37 3226 46 3253 172 3231 224 3266 145 3249 112
157 3237 61 3225 113 3250 23 3223 15
3612 3260 209 3211 111 3227 389 3258 153 3262 14 3236 93 3271 150 3265 107 3268 171
3066 3251 111 3234 190 3269 324 3282 107 3223 188 3250 433
811 3226 130 3255 94 3245 112 3240 63
3201 3223 139 3248 433 3272 22 3246 23 3237 192 3282 56 3270 230 3242 141
1994 3239 186 3264 154 3234 181 3274 159 3269 151 3248 111
16 3237 59
2832 3293 80 3280 130 3263 25 3245 172 3291 39 3261 223 3276 126 3233 160 3266 100
2 3236 35
3660 3259 233 2904 452 3275 57 2883 56 3245 37 3288 120 3249 94 3240 238 3266 254
36 3242 99
3570 3258 114 3267 69 3270 160 3242 257 3279 12 3290 165 3273 420 3236 135
1180 3247 153 3257 114 3268 210 3273 86 3236 167
67 2904 44 3255 233
2849 3281 187 3243 408 3261 271 3283 18 3271 89 3227 51 3285 118 3247 209
3582 3260 271 3293 196 3233 65 3276 131 3243 199 3285 140 3287 140 3253 223
1 3247 14
2 3253 25
1583 3239 120 3251 154 3274 161 3277 188 4288 153
49 3247 107
1853 3280 279 3245 145 3255 254 3253 100
10 3257 69
3036 3271 138 3258 210 3294 188 3273 241 3247 171 3286 36 3278 183
3445 3303 168 3298 213 3308 54 3248 324 3284 56 3274 209 3282 273 3251 151
2264 3250 230 3257 160 3282 65 3289 236 3290 85 3242 168
2910 3292 241 3278 158 3309 252 3281 108 3260 89 3247 150 3268 138 3294 198
1 3250 22
2717 3258 86 3290 114 3301 211 3257 420 3268 241 3294 82
3559 3269 209 3251 159 3305 52 3298 199 3308 37 3313 167 3299 24 3277 214 3264 161 3310 53
25 2904 50 3255 57
68 3261 131 3253 126
2774 3305 188 3264 188 3274 214 4288 204 4328 92 4323 34
156 3271 158 3268 183
1 3257 12
1598 3288 223 3266 279 3295 41 3297 37 3253 130 3291 74
821 3292 96 3260 187 3271 108 3285 78
1919 3303 120 3270 65 3269 273 3289 269 3248 107 3296 61 3250 56
1 3260 18
5 3269 56
3043 3287 103 3302 215 3260 118 3319 95 3293 136 3261 140 3292 297 3281 78
3 3268 36
291 3285 103 3261 140
3360 3312 18 3311 181 2904 221 2941 64 3295 148 3255 120 3280 223 3291 355 3300 168
2802 3290 168 3296 32 3282 269 3303 204 3317 32 3270 236 3307 249
3343 3273 114 3327 87 3301 368 3270 85 3320 41 3289 168 3307 205 3257 165
3785 3324 53 3311 273 3331 169 3302 153 3293 93 3288 355 3295 62 3316 133 3280 74 3297 28 3325 114 3253 39
2846 3321 262 3319 31 3309 67 3285 297 3271 241 3281 96
1033 3285 136 3302 174 3261 196 3291 93 3253 80
2246 3271 198 3268 188 3304 29 3309 336 3323 29 3320 91 3273 82 3301 163
85 3288 148 3280 41 3291 62
30 3282 61 3289 32
16 3291 28 3280 37
846 3269 213 3274 199 3308 163
4 3274 24
1680 2962 107 3311 106 2941 292 3318 236 3288 168
2466 3320 265 3294 163 3304 53 3273 211 3290 368
2579 3319 255 3291 153 3316 251 3293 174 3285 215 3332 92
1934 3308 360 3314 19 3317 160 3269 168 3289 204 3282 120
12 3301 53 3294 29
3490 4375 37 4374 137 3315 114 4328 321 4359 124 3277 188 3310 50 4360 25 3313 259 3306 13 3274 52
1 3305 13
1380 3317 133 3289 249 3327 93 3290 205
3778 3329 179 3326 15 3337 256 3274 37 3333 37 3313 108 3303 360 3338 40 3269 54 3298 163 3317 48 3342 40 3315 28 3336 108
3702 3328 110 3292 67 3320 158 3321 129 3294 336 3335 9 3271 252 3323 48 3334 297
38 3305 50 3274 53
2926 3288 181 3318 282 3351 42 3331 105 3291 273 3300 106 3344 138
2 3288 18
3904 3329 237 4374 127 4392 47 3305 259 3274 167 3349 51 3308 108 3315 286 4384 211
1 3303 19
332 3308 28 3329 134 3313 286 3305 114
1923 3302 251 3343 11 3291 133 3331 227 3325 63 3332 122 3341 105
1207 3339 21 3289 32 3303 160 3307 133 3327 136 3308 48 3336 129
4060 3330 62 3022 150 2995 191 3311 282 2962 139 3322 76 3351 254 3300 236
3328 3285 95 3348 266 3340 139 3321 118 3302 255 3292 31 3332 222
2609 3309 158 3347 18 3346 167 3334 184 3290 41 3327 170 3301 265 3294 91
2979 3292 262 3345 234 3319 118 3309 129 3348 80 3334 115 3350 56 3340 84
6 3318 76
27 3294 29 3309 48
3 3291 53
112 3331 10 3291 114 3316 63
1 3308 15
3940 3320 170 3360 5 3364 213 3290 87 3317 136 3346 90 3362 114 3339 68 3307 93 3336 269 3353 161
13 3309 110
4508 3337 181 3308 179 3315 134 3338 137 3349 290 3352 138 3366 46 3372 92 3313 237 3357 50
81 2962 79 3318 62
3379 3367 78 3369 13 3316 227 3332 280 3343 93 3291 169 3363 116 3311 105 3344 217 3325 10
2943 3363 251 3348 106 3331 280 3319 222 3356 85 3302 92 3341 247 3316 122 3374 55
3 3308 37
3667 3346 116 3345 249 3309 297 3335 1 3321 115 3354 300 3320 184 3358 167 3359 13
1 3309 9 3334 1
3827 3360 216 3337 110 3308 108 3327 269 3342 94 3317 129 3339 120 3371 132 3357 226
1338 3357 80 3308 256 3352 242 3336 110 3329 181 3338 62
182 3329 137 3308 40 3337 62
232 3327 68 3336 120 3317 21
243 3319 139 3348 33 3321 84
315 3316 105 3332 247
26 3308 40 3336 94
10 3331 93 3316 11
2103 3367 139 3373 113 3311 138 3331 217 3351 169 3355 20
2623 3348 248 3370 32 3334 249 3378 159 3321 234 3354 102
781 3358 17 3362 129 3327 90 3320 167 3334 116
1 3320 18
3522 3350 21 3321 80 3368 15 3377 104 3332 106 3380 228 3340 33 3378 174 3345 248 3374 160 3319 266
3283 3379 211 4392 3 3383 163 3365 23 3329 290 3372 108 3313 51 4384 143 3376 16
20 3348 21 3321 56
2378 3022 342 3318 254 3373 199 3311 42 3355 12 3344 169
776 3337 242 3329 138 3357 109
133 3327 161
2850 3345 102 3358 254 3359 1 3334 300 3385 162 3378 292
3 3351 12 3344 20
15 3332 85
2804 3371 58 3375 18 3329 50 3372 206 3352 109 3336 226 3337 80 3384 333 3382 17
2301 3388 7 3390 115 3385 88 3346 17 3334 167 3354 254 3362 272
1 3354 1 3334 13
1071 3371 270 3364 128 3327 5 3336 216
1 3022 17
2102 3346 129 3364 162 3381 55 3358 272 3390 147 3386 135 3327 114
2563 3367 274 3398 124 3380 62 3332 251 3331 116 3396 25 3395 120 3374 137
1470 3371 96 3327 213 3386 119 3362 162 3360 128
4 3349 23
10 3329 46
2514 3393 180 3395 167 3373 286 3331 78 3344 139 3363 274 3369 18
1 3348 15
5 3367 18 3331 13
2 3345 32
3726 3384 175 3357 58 3364 96 3386 252 3336 132 3405 391 3400 12 3391 48 3406 65 3360 270
2345 3384 88 3403 275 3387 44 3329 92 3349 108 3383 151 3357 206
2773 3393 242 3022 122 3045 154 3367 286 3351 199 3410 34 3409 54 3344 113
874 3380 175 3363 137 3348 160 3332 55
1 3357 18
2 3349 16
35 3380 18 3348 104
3475 3345 159 3390 64 3385 95 3354 292 3415 112 3380 24 3348 174 3407 14 3412 54 3408 13 3401 70 3394 369 3418 128
2074 3383 108 4384 167 3349 211 4425 114 3404 135 4427 113
3501 3377 18 3394 364 3348 228 3417 118 3378 24 3363 62 3374 175 3398 217
6 3362 55
1 3357 17
1239 3372 151 3404 252 3349 163 3379 108 3387 2 3403 40
3554 3372 88 3425 77 3357 333 3371 175 3403 255 3405 161 3399 26
852 3354 162 3378 95 3388 37 3358 88 3390 209
1824 3406 196 3391 8 3402 101 3371 252 3392 35 3390 11 3364 119 3362 135
12 3372 44 3383 2
5 3358 7 3385 37
1 3022 14
2147 3386 11 3358 115 3402 157 3418 153 3413 9 3412 26 3378 64 3385 209 3362 147
4 3386 8 3371 48
2 3386 35
2364 3373 242 3395 266 3397 47 3367 180 3409 452
3058 3426 276 3422 158 3380 364 3415 116 3378 369 3417 70 3408 18 3407 1
2434 3363 120 3429 108 3367 167 3393 266 3398 349 3409 129
3 3363 25
3 3393 47
2881 3428 187 3395 349 3417 184 3429 185 3380 217 3363 124
20 3403 103 3384 26
1 3371 12
6 3378 70
3182 3413 4 3416 60 3427 219 3439 228 3406 317 3424 139 3423 21 3418 100 3386 101 3390 157
3234 3372 275 3430 194 3425 99 3384 255 3404 228 3383 40 3434 68 3399 103
3001 3383 252 3403 228 3421 165 3449 82 4427 156 3434 66 3437 127 3379 135
2012 3425 75 3406 60 3424 112 3371 391 3420 187 3384 161
2596 3424 267 3386 196 3405 60 3402 317 3411 58 3371 65
1 3378 14 3394 1
3 3378 13 3394 18
3392 3429 92 3393 452 3410 19 3442 210 3080 213 3395 129 3045 53 3436 353 3373 54
11 3373 34 3409 19
4 3406 58
50 3378 54 3418 39 3390 26
2 3390 9 3402 4
8 3045 10 3080 32
1555 3422 56 3378 112 3394 116 3435 97 3441 113 3418 180
6 3402 60
1047 3426 122 3428 65 3394 70 3380 118 3398 184
2414 3431 99 3378 128 3415 180 3427 127 3412 39 3435 262 3402 100 3390 153
11 3080 92
946 3424 138 3425 162 3405 187 3432 108
133 3434 65 3404 165
751 3426 187 3415 56 3394 158 3441 85
2 3402 21
2652 3405 112 3455 92 3432 104 3402 139 3420 138 3447 301 3439 190 3406 267
2606 3405 75 3445 256 3384 77 3432 130 3403 99 3420 162 3430 257 3440 18
3190 3446 221 3441 77 3417 122 3394 276 3454 73 3422 187 3428 295
3861 3435 300 3431 55 3811 141 3402 219 3808 241 3439 374 3418 127
2159 3456 57 3417 65 3459 52 3450 26 3398 187 3429 180 3454 45 3426 295
2378 3456 221 3442 211 3428 180 3452 34 3395 108 3398 185 3409 92
3870 3425 257 3445 40 3463 275 3461 44 3403 194 3433 44 3434 306 3462 58
61 3418 99 3435 24 3427 55
1128 3447 120 3424 104 3445 88 3451 84 3420 108 3425 130
3 3430 44
1206 3462 128 3437 60 3404 66 3448 176 3430 306 3403 68 3421 65
2353 3415 97 3441 222 3808 24 3427 300 3418 262 3457 150 3431 24
3890 3093 95 3442 36 3080 172 3443 276 3458 66 3409 353 3453 247 3464 280
432 3449 111 3448 99 3404 127 3434 60
197 3443 75 3080 193
2454 3427 374 3424 190 3455 232 3811 103 3402 228
1 3425 18
3183 3415 113 3422 85 3813 54 3426 77 3457 365 3446 226 3435 222 3454 155 3810 1 3444 25
2406 3456 131 3816 98 3453 191 3429 211 3436 36 3409 210
1452 3458 168 3051 80 3093 123 3080 43 3438 75 3436 276
2 3441 25
2579 3430 40 3432 88 3460 205 3451 26 3425 256 3463 134 3818 177
746 3441 226 3454 185 3426 221
1997 3424 301 3460 216 3451 30 3455 167 3432 120
2504 3434 176 3812 278 4494 57 4498 227 4839 81 3437 99 4476 88 3462 89 3809 50 3449 157
2149 4427 34 4476 242 3448 157 4451 235 3437 111 3404 82
2 3428 26
161 3445 26 3447 30 3432 84 3460 20
2 3429 34
2027 3464 123 3816 115 3824 215 3442 191 3436 247
2790 3456 13 3428 45 3441 155 3817 398 3446 185 3813 304 3459 77 3426 73
3522 3447 167 3439 232 3830 153 3460 119 3821 72 3424 92 3834 150 3811 263 3826 12
2897 3816 331 3459 128 3454 13 3442 131 3429 221 3819 103 3428 57 3817 78
3451 3441 365 3823 76 3808 202 3820 380 3435 150 3813 100 3810 36
2775 3815 26 3443 168 3464 154 3490 263 3436 66 3105 170 3093 170
366 3456 128 3454 77 3428 52
1878 3447 216 3455 119 3821 216 3818 93 3445 205 3451 20
4 3430 44
644 3463 95 3812 156 3430 58 3434 128 3818 45 3448 89
2850 3836 101 3445 134 3812 172 3827 184 3430 275 3818 230 3462 95 3814 111
2984 3822 16 3838 158 3490 224 3093 47 3436 280 3824 198 3453 123 3458 154 3831 106
417 3088 218 3074 73 3474 81 3107 86
87 3081 100 3106 73
1 3106 8
636 3476 200 3087 46 3077 262
2 3098 7 3110 16
2 3108 2 3099 17
1 3091 21
1874 3489 21 3083 190 3105 94 3108 183 3482 130 3488 155
2184 3493 124 3478 186 3091 132 3475 294 3088 204
3081 3511 153 3496 145 3485 84 3107 376 3478 190 3465 81 3088 147
2922 3514 29 3091 21 3486 84 3504 187 3473 294 3476 66 3505 77 3101 310 3493 110 3494 133
3808 3483 98 3510 209 3468 200 3077 171 3101 133 3087 107 3507 27 3486 123 3494 110 3475 66 3503 255
12 3104 106
1799 3505 50 3473 186 3088 81 3496 296 3474 190 3493 28
3251 3487 418 3527 87 3484 17 3519 75 3106 87 3098 99 3491 349 3110 138 3492 136 3523 108
1 3108 17
3814 3512 248 3499 68 3492 143 3108 66 3099 150 3488 271 3106 168 3500 72 3521 80 3515 91
144 3105 39 3489 59 3472 130
12 3476 98
1 3479 17
2478 3107 105 3104 220 3474 84 3511 124 3495 217 3520 210
407 3494 120 3475 84 3476 123
981 3106 71 3098 59 3479 418 3498 88 3492 158
2954 3501 16 3502 154 3518 106 3489 122 3481 271 3108 201 3472 155 3515 257
1778 3490 230 3482 59 3105 235 3472 21 3502 179 3488 122 3513 189
3705 3105 112 3831 32 3513 321 3838 183 3847 80 3464 224 3458 263 3489 230
1010 3495 15 3110 237 3509 142 3479 349 3519 26
3645 3512 418 3499 76 3481 143 3479 136 3545 135 3106 78 3527 262 3525 82 3487 158 3498 125
469 3475 110 3478 28 3505 107 3473 124
3823 3486 120 3514 283 3475 133 3476 110 3534 182 3526 9 3503 430 3504 58
2016 3485 217 3491 15 3508 76 3104 98 3509 105 3497 120 3110 188 3506 273 3520 66
2627 3505 100 3511 203 3478 296 3474 145 3517 188
142 3495 120 3110 33 3104 17
142 3487 88 3492 125
51 3492 76 3481 68
7 3481 72
1 3488 16
1162 3518 187 3488 154 3489 179 3513 157
2472 3522 291 3494 430 3476 255 3534 19 3510 202
334 3494 58 3475 187 3514 110
2756 3538 148 3514 290 3517 185 3526 152 3475 77 3478 50 3496 100 3493 107 3539 7
3093 3495 273 3520 240 3509 213 3523 50 3540 160 3531 238
6 3476 27
9 3495 76
1241 3523 84 3519 38 3491 142 3495 105 3506 213
2640 3533 172 3476 209 3528 42 3503 202 3522 186
3053 3516 107 3549 37 3520 93 3530 292 3485 124 3517 241 3474 153 3529 111 3538 88 3496 203
1879 3536 172 3521 152 3481 248 3492 418 3543 54 3545 17
3087 3518 181 3502 157 3489 189 3490 321 3559 20 3535 261 3838 233 3865 46
1925 3504 110 3526 249 3505 290 3475 29 3494 283
1873 3532 162 3521 127 3536 44 3488 257 3481 91 3518 141
22 3520 41 3511 107
1463 3505 185 3538 136 3511 241 3496 188
2384 3535 149 3502 187 3865 29 3513 181 3524 13 3537 216 3515 141 3532 86 3488 106
264 3479 75 3523 108 3491 26 3509 38
3107 3495 66 3511 93 3485 210 3551 12 3540 149 3530 204 3506 240 3547 163 3516 41
878 3536 88 3512 152 3481 80 3515 127
2565 3542 67 3510 186 3548 203 3533 69 3534 158 3503 291 3544 11
2628 3550 138 3479 108 3531 195 3546 177 3519 108 3506 50 3509 84 3527 202
1 3518 13
6 3492 82
3666 3557 190 3514 249 3552 274 3505 152 3494 9 3534 276 3538 138 3567 57
1636 3545 106 3523 202 3541 42 3492 262 3550 120 3479 87
6 3510 42
34 3511 111
2315 3511 292 3556 161 3549 176 3547 72 3553 75 3520 204
1379 3506 238 3540 168 3523 195 3546 160
4088 3515 162 3537 343 3518 86 3560 360 3536 235
816 3561 110 3548 285 3510 172 3522 69
3079 3555 309 3503 19 3542 155 3557 175 3526 276 3544 1 3494 182 3548 81 3554 11 3522 158
2134 3518 149 3513 261 3537 167 3559 330 3865 34
1977 3560 58 3521 88 3512 172 3558 164 3532 235 3515 44 3543 92 3545 111
2225 3566 146 3560 46 3572 82 3559 159 3532 343 3535 167 3518 216
3057 3505 148 3539 6 3511 88 3562 222 3517 136 3526 138 3552 228 3549 219
1 3538 6 3505 7
3507 3546 171 3547 219 3564 39 3531 168 3573 290 3520 149 3556 206 3506 160
2 3527 42
93 3522 67 3534 155
29 3512 54 3536 92
1 3534 1 3522 11
1674 3512 17 3550 96 3565 118 3492 135 3558 113 3527 106 3536 111
1947 3571 49 3540 171 3531 160 3523 177 3564 154 3550 218
1168 3540 219 3520 163 3556 298 3530 72
2838 3561 199 3554 2 3534 81 3555 162 3569 199 3533 285 3522 203
2790 3584 99 3563 100 3530 176 3562 98 3575 215 3538 219 3511 37 3556 73
2408 3546 218 3545 96 3565 114 3576 50 3571 224 3527 120 3523 138
1 3520 12
795 3526 274 3538 228 3562 158 3567 39
9 3530 75
2 3534 11 3555 3 3548 2
1584 3554 3 3534 309 3557 324 3548 162 3578 8 3569 154
3217 3549 73 3540 206 3563 367 3573 132 3570 47 3547 298 3589 88 3530 161
4437 3526 190 3578 33 3592 178 3534 175 3569 88 3595 130 3567 386 3555 324
2934 3565 186 3582 274 3574 60 3545 113 3536 164 3587 68 3560 187 3580 45
3290 3566 255 3895 120 3838 80 3902 66 3537 159 3513 20 3864 272 3535 330
2788 3574 271 3558 187 3537 46 3536 58 3568 23 3572 210 3532 360
2053 3548 199 3577 105 3533 110 3586 217 3569 57 3588 165
3361 3567 238 3549 98 3552 158 3581 227 3584 166 3585 25 3575 73 3538 222 3598 22
1494 3584 101 3596 195 3556 367 3589 25 3549 100
2399 3540 39 3571 255 3546 154 3579 184 3573 140 3590 179 3601 81
610 3582 51 3558 186 3576 98 3550 114 3545 118
2220 3902 213 3917 131 3537 146 3572 336 3559 255
1704 3592 87 3526 57 3594 191 3552 39 3562 238 3581 12 3557 386
1 3560 23
2123 3557 88 3548 199 3561 57 3578 53 3586 124 3555 154 3577 61 3595 166 3592 5
3 3556 47
2578 3582 129 3546 49 3550 224 3601 265 3564 255 3576 131
3186 3609 45 3591 85 3537 82 3566 336 3603 111 3597 263 3560 210 3917 97 3574 62
2341 3589 247 3583 40 3540 290 3556 132 3579 54 3590 76 3564 140
2133 3587 259 3606 35 3572 62 3591 260 3558 60 3560 271
344 3584 84 3562 73 3549 215
738 3550 50 3565 98 3571 131 3582 256
114 3561 105 3569 61
56 3569 53 3555 8 3557 33
149 3573 54 3564 184
3 3558 45
2275 3567 12 3584 318 3617 112 3562 227 3615 115 3604 167 3594 132
3853 3601 134 3605 218 3576 256 3558 274 3565 51 3616 215 3571 129 3607 151 3587 165 3602 45
5 3573 40
3609 3563 101 3562 166 3575 84 3581 318 3627 136 3598 16 3549 99 3626 32 3593 48 3617 147 3599 301 3596 156
2 3562 25
2370 3608 213 3569 124 3588 87 3595 175 3561 217 3612 107
1265 3558 68 3574 259 3605 179 3582 165 3606 43
1277 3586 87 3561 165 3608 209
2583 3600 18 3596 234 3573 247 3590 278 3563 25 3556 88 3613 134
1409 3613 80 3564 179 3573 76 3589 278 3601 219
1102 3603 214 3574 260 3572 85 3606 104
404 3567 87 3594 74 3557 178 3595 178 3569 5
4 3584 48
1488 3567 191 3604 328 3581 132 3618 86 3595 230 3592 74
3826 3611 191 3610 18 3618 180 3557 130 3586 175 3569 166 3592 178 3594 230 3612 303
3384 3619 343 3613 44 3584 156 3589 234 3627 153 3626 82 3563 195 3599 292
428 3609 104 3572 263 3603 62
4 3584 16 3562 22
943 3584 301 3596 292
1 3589 18
4130 3623 10 3625 317 3564 81 3590 219 3613 102 3571 265 3631 113 3582 134 3616 183
3 3582 45
3439 3629 260 3640 57 3597 62 3591 214 3606 227 3614 13 3572 111 3621 134 3609 195
1905 3615 262 3618 139 3581 167 3630 79 3594 328
2801 3582 218 3639 85 3616 91 3632 201 3628 10 3606 146 3587 179 3621 122
1509 3574 35 3603 227 3587 43 3605 146 3621 166 3591 104
49 3582 151
4239 3624 246 3588 209 3641 241 3612 153 3636 143 3622 22 3586 213 3633 48
3357 3917 163 3635 57 3603 195 3597 104 3944 163 3965 174 3629 116 3949 20 3614 3 3572 45 3937 93 3946 18
1 3595 18
66 3595 191
1729 3624 245 3618 33 3586 107 3608 153 3595 303
3639 3619 304 3625 109 3645 179 3589 134 3627 118 3601 102 3590 80 3647 58 3620 17 3637 323 3596 44
1 3603 13 3609 3
2768 3644 196 3634 225 3630 76 3617 399 3581 115 3604 262
3042 3639 196 3582 215 3631 223 3605 91 3650 178 3601 183
3795 3638 81 3615 399 3627 266 3581 112 3648 49 3654 254 3644 177 3584 147
1580 3634 194 3624 176 3604 139 3630 38 3595 180 3612 33 3594 86
859 3627 75 3596 343 3613 304
1 3613 17
2675 3632 178 3603 134 3639 176 3606 166 3605 122 3640 290
2 3608 22
1 3601 10
3548 3608 246 3634 35 3641 170 3612 245 3661 172 3642 309 3618 176 3657 26 3662 7
2200 3613 109 3631 308 3637 244 3601 317
75 3584 32 3627 43 3596 82
4029 3645 216 3619 75 3626 43 3596 153 3584 136 3648 226 3613 118 3617 266
1 3605 10
3692 3635 131 3603 260 3981 153 3640 299 3651 322 3609 116 3965 128 3658 14
225 3615 76 3634 79 3604 79 3618 38
3284 3650 78 3616 223 3625 308 3655 31 3649 53 3601 113 3637 128 3656 318
414 3639 76 3621 178 3605 201
6 3608 48
2987 3662 319 3630 79 3615 225 3642 294 3644 294 3618 194 3624 35
82 3609 57 3629 131
755 3608 143 3641 142
2932 3625 244 3631 128 3645 70 3613 323 3659 46 3647 40 3655 378
9 3617 81
3978 3616 196 3678 9 3650 263 3652 213 3643 109 3632 76 3621 176 3660 205 3605 85 3670 203 3640 49
1492 3603 57 3639 49 3621 290 3651 215 3629 299 3652 98
3016 3636 142 3661 141 3608 241 3666 179 3646 46 3624 170
1697 3662 158 3634 294 3624 309
28 3639 109
1935 3662 23 3617 177 3664 228 3634 294 3654 118 3615 196
3572 3685 118 3613 179 3648 97 3627 216 3655 59 3659 67 3637 70 3672 331 3653 25 3668 141
4 3641 46
33 3637 40 3613 58
794 3627 226 3645 97 3617 49 3654 103 3668 138
11 3631 53 3656 19
3068 3639 263 3616 178 3631 78 3673 334 3667 52 3670 140 3678 14 3656 87
3006 3652 66 3981 127 3679 68 3629 322 3680 83 3676 86 3665 268 3682 63 3640 215
1153 3651 66 3639 213 3665 240 3640 98 3670 168
2 3645 25
3459 3644 118 3664 243 3695 26 3694 72 3617 254 3648 103 3684 231 3668 297
3953 3645 59 3667 172 3631 31 3672 98 3656 184 3675 459 3663 43 3659 74 3686 139 3637 378
1277 3667 269 3655 184 3649 19 3631 318 3650 87
2 3624 26
1 3629 14
141 3637 46 3655 74 3645 67
65 3639 205 3670 20
3138 3666 1 3624 172 3641 141 3674 161 3683 221 3691 112 3690 92 3669 118 3662 271
3106 3634 319 3671 45 3683 190 3624 7 3644 23 3677 157 3642 158 3664 77 3661 271
5 3655 43
2079 3644 228 3654 243 3662 77 3694 252 3677 190
3846 3652 240 3670 201 3689 113 3697 293 3682 46 3676 165 3651 268 3703 153
1933 3698 142 3641 179 3674 242 3669 51 3661 1 3687 57
1601 3650 52 3655 172 3686 150 3688 5 3673 242 3656 269
1749 3645 141 3648 138 3684 143 3654 297 3685 123
235 3661 118 3666 51 3674 82
4007 3681 40 3652 168 3639 203 3650 140 3665 201 3678 110 3696 122 3660 20 3700 138 3673 152 3703 255
3 3662 45
2927 3705 28 3675 225 3685 46 3686 94 3645 331 3655 98 3693 248 3692 145
3382 3700 237 3667 242 3670 152 3686 128 3650 334 3701 135
1550 3691 124 3666 242 3698 167 3687 56 3669 82 3661 161
1093 3686 128 3672 225 3655 459
407 3651 86 3682 169 3665 165
1113 3664 190 3683 197 3662 157 3694 29
27 3639 9 3670 110 3650 14
59 3682 35 3651 68
2877 4003 266 4020 179 3739 34 3682 189 4018 111 3981 349 3651 83 4027 209
3 3670 40
3209 4027 209 3680 189 3679 35 3697 248 3739 140 3676 169 3665 46 3651 63 3716 168
4379 3691 178 3690 12 3713 81 3677 197 3708 182 3661 221 3707 87 3662 190 3694 222
2163 3668 143 3654 231 3704 144 3694 55 3714 81 3685 236 3715 166
1582 3705 38 3692 159 3672 46 3715 102 3684 236 3668 123 3645 118
2931 3675 128 3699 92 3701 354 3667 150 3655 139 3673 128 3711 142 3672 94 3693 166
55 3666 57 3674 56
1 3667 5
46 3665 113
89 3661 92 3691 31 3683 12
1811 3698 161 3690 31 3674 124 3706 21 3661 112 3683 178 3709 166 3707 91
672 3705 94 3672 145 3685 159
1603 3672 248 3729 73 3740 39 3705 442 3686 166 3711 46
3117 3695 47 3664 252 3683 222 3702 34 3684 55 3704 418 3654 72 3713 114 3677 29
9 3654 26 3694 47
88 3700 64 3670 122
2567 3734 44 3682 248 3721 293 3703 272 3716 321 3665 293
2759 3706 63 3666 142 3674 167 3726 169 3712 150 3709 141 3691 161
16 3686 92
3039 3720 159 3670 138 3724 11 3736 37 3719 16 3696 64 3723 196 3673 237 3701 175 3703 102 3722 80
3509 3711 205 3717 220 3673 135 3700 175 3710 28 3722 282 3686 354
2 3694 34
2659 3700 102 3730 143 3721 79 3670 255 3720 116 3665 153 3697 272
2147 3694 418 3727 55 3741 111 3714 315 3684 144 3713 133 3728 155 3718 1
3169 3740 55 3711 369 3692 94 3693 442 3672 28 3715 229 3685 38 3729 36
18 3691 21 3698 63
3552 3691 91 3726 125 3737 20 3727 307 3744 162 3683 87 3709 385 3708 165 3713 114
277 3683 182 3707 165
1287 3698 141 3691 166 3726 110 3707 385
2 3701 28
3094 3738 13 3722 49 3740 68 3686 142 3742 191 3701 205 3693 46 3746 13 3717 31 3731 348 3732 10 3705 369
458 3698 150 3726 171
1104 3694 114 3727 143 3707 114 3683 81 3704 133
3552 3753 100 3728 370 3684 81 3718 10 3729 187 3704 315 3735 40 3715 305
1831 3685 102 3684 166 3714 305 3729 326 3705 229
2294 3734 316 3739 126 3682 168 3725 36 3747 87 3697 321
148 3711 31 3701 220 3722 49
1 3704 1 3714 10
1 3700 16
619 3700 159 3723 141 3730 177 3703 116
1925 3703 79 3745 222 3730 99 3743 14 3734 204 3697 293
3505 3723 45 3742 261 3762 55 3711 49 3701 282 3748 189 3756 206 3733 30 3751 19 3749 70 3700 80 3717 49
1884 3736 21 3720 141 3724 4 3722 45 3730 119 3749 256 3700 196
1 3700 11 3723 4
3 3716 36
3975 3709 110 3765 4 3760 160 3707 125 3744 188 3769 6 3712 171 3698 169 3766 15 3761 136
2901 3704 55 3707 307 3741 225 3752 253 3713 143 3744 265
2887 3704 155 3714 370 3735 174 3741 143 3753 182 3775 24 3755 201
3278 3740 485 3753 60 3759 21 3776 77 3758 191 3714 187 3715 326 3693 73 3777 12 3705 36
1772 3723 119 3721 99 3703 143 3745 210 3720 177 3749 146
3182 3786 160 3738 6 3783 159 3711 348 3742 445 3740 374 3795 58
1 3711 10
3 3722 30
3878 3697 44 3774 193 3763 253 3747 102 3754 176 3716 316 3745 131 3721 204 3770 61
109 3728 174 3714 40
12 3723 21 3700 37
2 3707 20
1 3731 6 3711 13
3272 3680 34 4070 226 4020 135 3682 140 3716 126 3747 201 4027 145 4048 286
3701 3705 55 3776 79 3771 104 3729 485 3711 68 3731 374 3783 160 3693 39 3750 35
1470 3752 194 3728 143 3727 225 3755 133 3704 111
3813 3796 16 3711 191 3787 40 3786 159 3731 445 3762 256 3722 261
1 3721 14
1696 3752 104 3727 265 3726 188 3707 162 3760 254
3483 3772 144 3721 222 3770 59 3754 68 3774 107 3773 14 3730 210 3757 46 3734 131 3778 265 3749 216
1 3711 13
1059 3763 155 3716 87 3734 102 3739 201 4070 173
77 3722 189
1821 3722 70 3756 106 3751 1 3723 256 3745 216 3730 146 3757 279
2 3740 35
2 3749 1 3722 19
3444 3744 104 3790 104 3755 224 3741 194 3727 253 3782 92 3779 151 3788 13 3794 71 3760 73
3769 3758 318 3775 54 3767 38 3755 90 3729 60 3728 182 3785 394 3714 100 3777 14 3776 170
123 3734 176 3745 68
1968 3753 90 3752 224 3728 201 3785 63 3782 158 3775 56 3741 133
1151 3762 133 3768 153 3722 206 3757 5 3749 106
1307 3772 106 3756 5 3745 46 3768 140 3749 279
1024 3776 124 3729 191 3753 318
1 3729 21
3524 3780 57 3769 54 3792 98 3779 161 3726 160 3764 60 3789 242 3744 254 3761 365 3765 13 3752 73
2558 3760 365 3800 134 3766 117 3780 54 3726 136 3803 181
1885 3742 256 3756 133 3796 107 3781 33 3722 55 3768 294
2394 3734 253 4091 199 4070 10 3784 254 3747 155 3774 108 4115 34
3 3760 60
4 3726 4 3760 13
107 3761 117 3726 15
3 3753 38
3337 3781 21 3756 153 3796 89 3801 155 3772 289 3757 140 3762 294 3798 58 3799 171
5 3760 54 3726 6
101 3734 61 3774 55 3745 59
17 3740 104
1749 3778 145 3757 106 3768 289 3745 144 3799 186
1 3745 14
4062 3791 10 3802 309 3734 193 3745 107 3806 126 3778 268 3770 55 3784 148 3763 108
44 3753 54 3755 56 3728 24
2989 3740 79 3785 172 3758 124 3777 101 3753 170 3783 356 3729 77
21 3776 101 3729 12 3753 14
2944 3774 268 3745 265 3802 98 3772 145 3799 268
1190 3752 151 3790 18 3789 99 3794 11 3760 161 3797 135
88 3789 5 3760 57 3800 16 3761 54
4 3762 33 3768 21
429 3755 158 3785 99 3752 92 3790 56
3018 3731 159 3776 356 3786 105 3740 160 3805 129 3795 73
3224 4115 93 3806 205 4117 30 4126 116 4091 250 3763 254 3774 148 4113 89
3468 3753 394 3790 299 3776 172 3755 63 3782 99
3777 3793 199 3796 402 3783 105 3742 159 3805 91 3731 160 3795 97
2 3742 40
1 3752 13
3160 3797 217 3800 174 3779 99 3760 242 3790 167 3780 5 3792 99
4144 3785 299 3797 136 3752 104 3782 56 3804 211 3789 167 3794 100 3779 18
1 3774 10
116 3789 99 3760 98
86 3786 199
90 3752 71 3790 100 3779 11
151 3786 97 3731 58 3783 73
1829 3762 107 3768 89 3786 402 3801 146 3742 16
713 3789 217 3790 136 3779 135
26 3768 58 3799 85
3577 3768 171 3778 268 3802 46 3772 186 3801 236 3798 85
1095 3789 174 3803 108 3761 134 3780 16
1757 3807 5 3768 155 3796 146 3799 236
1590 3799 46 3778 98 3774 309
627 3800 108 3761 181
115 3790 211
479 3783 129 3786 91
1453 4126 120 3784 205 3774 126
1 3801 5
2700 3844 183 3427 241 3820 189 3837 61 3435 24 3457 202 3811 223 3841 52
11 3448 50
4 3457 36 3441 1
3228 3844 128 3439 103 3427 141 3830 291 3455 263 3837 99 3808 223
3332 3833 259 4876 47 3463 172 3827 244 3825 14 4839 166 3448 278 4861 90 3462 156
1070 3457 100 3441 54 3454 304 3817 151 3820 160
119 3463 111 3818 100
2 3458 26
2148 3456 331 3839 107 3829 121 3819 36 3824 228 3442 98 3453 115 3817 45
3130 3820 82 3829 290 3840 270 3843 78 3456 78 3819 39 3816 45 3835 99 3454 398 3813 151
2541 3842 9 3463 230 3814 100 3460 93 3836 223 3832 65 3445 177 3821 249 3462 45
137 3456 103 3816 36 3817 39
3658 3841 440 3840 63 3843 46 3808 189 3823 33 3835 104 3817 82 3457 380 3813 160 3852 48
2438 3455 72 3834 325 3460 216 3842 82 3846 29 3828 82 3818 249
1 3464 16
33 3457 76 3820 33
2835 3838 220 3816 228 3453 215 3849 49 3839 183 3464 198
1 3812 14
1 3455 12
1177 3812 244 3836 208 3848 64 3463 184 3833 106
6 3821 82
2243 3853 62 3816 121 3840 225 3845 165 3839 202 3817 290
3127 3841 48 3856 398 3834 77 3811 291 3455 153 3867 20 3860 29 3844 266 3850 164
44 3464 106 3490 32
4 3818 65
1566 4876 191 3812 259 3848 170 3827 106 3857 52
2521 3851 100 3846 261 3455 150 3830 77 3821 325 3850 186
89 3817 99 3820 104
2814 3827 208 3846 84 3848 223 3854 111 3855 170 3842 99 3463 101 3818 223
46 3811 99 3808 61
3947 3824 220 3862 212 3464 158 3559 80 3839 111 3490 183 3863 10 3513 233 3864 168
2345 3816 107 3862 114 3858 279 3824 183 3838 111 3853 61 3829 202
3423 3859 412 3852 166 3820 63 3843 97 3853 174 3829 225 3817 270
2232 3860 191 3820 440 3852 179 3830 48 3844 147 3808 52
180 3836 99 3846 42 3821 82 3818 9
148 3820 46 3817 78 3840 97
1105 3841 147 3811 128 3830 266 3808 183
20 3829 165
3090 3887 42 3842 42 3870 153 3836 84 3855 225 3850 198 3834 261 3821 29 3866 8
6 3490 80
2874 3827 64 3854 253 3836 223 3868 119 3833 170 4909 68 3873 48 3857 142 3875 229
3 3824 49
3790 3861 32 3834 186 3846 198 3866 38 3830 164 3851 27 3887 136 3869 288 3856 172
29 3850 27 3834 100
2109 3876 2 3859 140 3820 48 3874 165 3840 166 3860 162 3841 179
3326 3840 174 3862 187 3859 176 3839 61 3858 335 3890 54 3829 62 3891 165 3884 101
2559 3875 73 3836 111 3848 253 3871 237 3888 61 3855 148 3872 25 3873 110
2106 3854 148 3871 133 3870 137 3846 225 3836 170
3519 3885 143 3830 398 3860 195 3850 172 3886 312 3869 109
926 4909 97 4876 305 3833 52 3848 142
1352 3839 279 3853 335 3862 109
3587 3884 138 3881 294 3874 106 3853 176 3852 140 3878 14 3840 412
2844 3841 191 3874 182 3880 266 3883 21 3830 29 3852 162 3885 85 3856 195
2 3850 32
3377 3889 214 3877 13 3858 109 3838 212 3890 221 3839 114 3864 334 3853 187
1 3838 10
2277 3838 168 3862 334 3895 240 3889 38 3559 272
25 3518 29 3535 34 3513 46
5 3850 38 3846 8
1 3830 20
68 3848 119 3875 34
1189 3886 193 3856 109 3887 162 3850 288 3897 69
1518 3887 305 3855 137 3871 214 3846 153
3972 3854 237 3887 250 3855 133 3894 241 3910 205 3912 10 3870 214 3901 138 3888 67 3892 157 3879 11
2 3854 25
24 3875 16 3854 110 3848 48
2294 3898 117 3852 165 3881 126 3860 182 3880 218 3876 17 3859 106 3882 131
2962 3892 212 3873 16 4936 148 3905 313 3848 229 3868 34 3854 73 4909 183 3888 136
8 3852 2 3874 17
1 3862 13
1 3859 14
1 3871 11
1931 3860 266 3874 218 3898 78 3903 155 3885 202
2403 3900 249 3884 194 3874 126 3898 228 3859 294
27 3874 131
1 3860 21
1157 3853 101 3881 194 3891 132 3900 103 3859 138
1891 3908 168 3880 202 3886 132 3860 85 3903 150 3893 97 3856 143
2507 3856 312 3897 145 3908 132 3869 193 3885 132 3904 241
3789 3901 214 3846 42 3871 250 3897 180 3870 305 3906 108 3850 136 3869 162
499 3892 157 3854 61 3875 136 3871 67
1657 3911 7 3862 214 3895 200 3907 194 3864 38 3890 156
2090 3862 221 3891 332 3907 145 3853 54 3889 156
3778 3896 94 3900 388 3907 67 3924 368 3884 132 3890 332 3921 100 3853 165
2538 3875 212 3910 33 3912 33 3905 268 3894 176 3899 16 3914 154 3888 157 3871 157
8 3885 97
475 3892 176 3871 241
3068 3889 200 3911 28 3559 120 3902 202 3907 57 3917 196 3864 240
8 3891 94
778 3904 136 3906 107 3887 180 3886 145 3869 69
3576 3874 117 3921 156 3880 78 3900 89 3933 102 3881 228 3935 52 3930 105 3903 132 3915 127 3913 282
1 3892 16
1993 3898 89 3891 388 3915 58 3881 249 3884 103 3921 122
2272 3926 194 3887 214 3871 138 3934 43 3910 204 3906 203
1086 3917 243 3895 202 3559 66 3566 213
3513 3913 348 3880 155 3885 150 3908 407 3930 118 3898 132
2943 3927 202 3908 145 3925 189 3906 150 3897 136 3916 14 3909 58 3931 45 3886 241
4014 3919 48 3922 336 4936 28 4952 143 3892 268 4909 94 3918 159 3923 57 3932 93 3941 103 3914 25 4928 127 3875 313
2577 3926 176 3901 203 3887 108 3931 176 3897 107 3904 150
2070 3928 99 3895 57 3889 194 3917 99 3929 190 3890 145 3911 1 3891 67 3924 81 3920 128
3764 3930 287 3886 132 3903 407 3885 168 3904 145 3925 402 3953 231
5 3904 58
1207 3892 33 3871 205 3934 53 3901 204 3914 270
3 3895 28 3907 1 3889 7
12 3892 33 3871 10
1362 3898 282 3930 261 3903 348
2345 3892 154 3910 270 3932 35 3905 25 3939 199 3934 114 3941 122
76 3898 127 3900 58
1 3904 14
3359 3929 67 3566 131 3928 106 3895 196 3902 243 3907 99 3936 20 3940 23 3572 97 3937 318 3609 163
108 3905 159 4952 30 3922 54
6 3905 48
57 3907 128
741 3900 122 3924 51 3891 100 3898 156 3933 162
2621 4981 68 3941 84 4952 132 4980 13 3923 34 3918 54 3947 166 3905 336
30 3922 34 3905 57
3206 3933 97 3921 51 3929 365 3942 35 3907 81 3891 368 3945 357
2303 3938 25 3908 402 3958 196 3953 69 3931 205 3927 138 3904 189 3943 69
2821 3901 194 3906 176 3956 114 3934 292 3954 44 3931 154 3950 113
1063 3925 138 3904 202 3931 259
315 3917 106 3929 150 3907 99
3372 3928 150 3944 6 3937 88 3951 212 3917 67 3924 365 3957 171 3945 173 3907 190
3340 3953 175 3963 40 3935 87 3908 287 3933 144 3952 128 3898 105 3913 261 3903 118
3713 3926 154 3950 250 3904 45 3925 205 3960 182 3927 259 3962 81 3958 95 3959 25 3906 176
89 3905 93 3914 35
1784 3898 102 3930 144 3924 97 3942 245 3921 162 3935 77
3239 3926 292 3910 53 3939 330 3955 4 3954 27 3956 133 3970 78 3966 154 3914 114 3901 43
275 3952 91 3942 76 3930 87 3898 52 3933 77
1 3917 20
1466 3917 318 3929 88 3609 93 3944 246
2 3925 25
4422 3964 135 3934 330 3941 191 3970 490 3974 15 3947 47 3914 199 3975 32 3955 93
6 3917 23
1287 3939 191 3922 84 3947 196 3905 103 3914 122
2049 3952 146 3961 243 3945 103 3935 76 3924 35 3933 245
4 3925 69
2556 3948 33 3609 163 3951 27 3957 206 3929 6 3937 246 3965 194
3681 3929 173 3971 291 3942 103 3972 161 3924 357 3961 393 3957 71
1 3609 18
1746 4981 555 3941 196 3939 47 3964 240 3922 166 3973 59
2 3944 33
2 3609 20
3552 3960 157 3926 113 3991 83 3980 265 3956 116 3968 42 3966 133 3989 11 3962 203 3931 250
703 3944 27 3957 379 3929 212
2727 3930 128 3977 161 3992 21 3935 91 3978 14 3942 146 3963 418 3961 254
3562 3925 69 3958 118 3979 120 3993 130 3908 231 3969 210 3967 51 3988 80 3985 65 3930 175 3963 172
16 3926 44 3934 27
16 3939 93 3934 4
480 3934 133 3926 114 3966 91 3950 116
3910 3994 108 3944 206 3984 121 3951 379 3986 118 3971 219 3965 107 3929 171 3945 71
747 3931 95 3953 118 3962 132 3969 108 3925 196
2 3931 25
409 3931 182 3950 157 3962 64
2602 3952 254 3971 61 3977 210 3945 393 3942 243
1880 3960 64 3991 213 3950 203 3979 127 3931 81 3958 132 3969 93
3446 3978 8 3993 283 3953 172 3952 418 3988 42 3967 15 3930 40 4004 162 4005 59 3992 170
1374 3939 135 5026 45 3947 240 3973 168 3983 246 3970 71
2325 3976 113 3957 107 3609 174 3981 214 3984 129 3944 194 3629 128
2436 3956 91 3970 216 3950 133 3987 55 3934 154 3997 254 3980 157
35 3953 51 3963 15
3 3950 42
1258 3958 108 3953 210 3962 93 3979 254
2920 3983 324 3975 19 3939 490 3966 216 3998 40 3934 78 3964 71 3987 263
3472 3945 291 3986 235 3961 61 3972 99 3990 64 3977 107 3995 270 3957 219 3982 44
229 3971 99 3945 161
2003 3964 168 4981 263 5010 316 5025 1 3947 59 5026 182 4006 72
1 3939 15
11 3939 32 3970 19
37 3965 113
2770 3992 151 3971 107 3990 205 4001 375 3961 210 3995 146 3952 161
5 3963 8 3952 14
3722 3953 120 3969 254 4008 49 3993 97 3991 261 4007 219 3962 127 4002 412 4016 36
1174 3950 265 3966 157 3991 234 3997 102
2868 3965 214 3984 56 3680 349 3651 127 3629 153 4003 147
3 3971 44
3594 4000 485 3970 324 3999 100 3998 85 5026 120 3964 246 4006 139
797 4003 68 3981 56 3957 121 3965 129 3994 74
5 3953 65
891 3994 317 3957 118 3995 68 3971 235
3951 3998 317 3970 263 4011 300 4026 142 3997 88 3966 55 4013 15
117 3993 39 3963 42 3953 80
13 3991 8 3950 11
161 3977 205 4001 28 3971 64 3995 52
3870 4010 215 3989 8 4007 251 3997 165 3962 213 3996 21 3950 83 3980 234 3979 261
665 3977 151 3963 170 4004 137 3952 21 4001 126
2391 3963 283 3953 130 4004 189 3988 39 3979 97 4002 313
3357 4003 237 3984 74 4015 133 3986 317 3995 273 3957 108 4014 26 4020 135
3705 3977 146 3986 68 3994 273 3971 270 4015 314 3990 52 4009 69 4001 68
1 3991 21
2662 3987 88 4011 211 3991 165 4010 202 3966 254 3980 102
1372 3970 40 4000 311 3987 317 4019 124 4026 63 3983 85
10 3983 100
3261 3983 485 4006 176 4031 108 3998 311 4017 6 5068 35 5058 37 4019 212
2153 4012 313 3990 28 4004 33 3992 126 4021 77 3977 375 4009 70 3995 68
4369 3993 313 4038 84 4008 4 4023 14 4007 57 3979 412 4036 56 4025 164 4022 250 4024 199 4004 69 4034 33
2378 3680 266 3981 147 3984 68 4028 13 4020 218 3994 237
2656 3963 162 3992 137 4002 69 4033 19 4022 107 3993 189 4001 33 4037 85 4012 279
5 3963 59
3452 5010 173 5026 296 4000 176 5042 257 5058 284 3973 72 5039 2 3983 139 5056 11
2312 4016 22 3991 251 4025 349 4010 273 3979 219 4002 57
7 3979 49 4002 4
478 4021 106 4015 55 3995 69 4001 70
3177 4011 188 4044 324 3991 215 4051 51 4007 273 4025 98 4047 61 3997 202
3683 4010 188 4047 108 4030 31 4042 45 4043 284 4026 237 3997 211 3987 300 4065 35
2881 4032 36 4035 111 4004 279 4001 313 4041 273 4037 149 4021 39
1 3987 15
2 3994 26
2682 3994 133 4039 158 4029 85 4021 136 4009 55 3995 314 4020 10 4040 28
9 3979 36 4007 22
1 4000 6
29 3680 111
1965 4046 106 3998 124 4026 188 4000 212 4031 169
2743 3739 135 4003 218 4048 200 3680 179 3994 135 4029 57 4015 10 4039 238
3540 4052 179 4012 39 4039 156 4035 141 4045 127 4063 160 4067 16 4071 123 4032 22 4049 162 4015 136 4009 106 4001 77
2367 4038 121 4037 290 4057 79 4004 107 4055 135 4002 250
1 4002 14
295 4038 48 4025 94 4002 199
3556 4002 164 4024 94 4059 40 4007 349 4038 257 4058 37 4051 259 4010 98
2168 4011 237 4046 161 3998 63 3987 142 4043 346 4019 188
935 3680 209 3739 145 3682 209
1 4003 13
132 4015 85 4020 57
6 4011 31
2623 4046 186 5082 27 4000 108 5068 69 5095 58 4019 169 5080 41 5058 305 5105 131
13 4012 36 4021 22
2 4004 19
2 4002 33
629 4021 141 4041 9 4012 111 4049 141
9 4038 10 4002 56
2798 4061 6 4012 149 4041 236 4057 241 4060 213 4053 64 4004 85 4049 19 4022 290
2524 4059 377 4055 97 4022 121 4002 84 4025 257 4036 10 4024 48 4064 135
3100 4040 127 4021 156 4048 169 4052 289 4020 238 4015 158
56 4015 28 4039 127
1132 4037 236 4012 273 4049 161 4035 9
3 4011 45
3591 4065 208 4068 34 4011 284 4054 41 4046 179 4072 123 4026 346
3611 4065 200 4010 324 4056 83 4051 190 4069 279 4047 178
18 4021 127
3787 4043 179 4077 188 4031 186 4026 161 5105 233 4050 31 4072 239 4019 106
851 4065 158 4044 178 4010 61 4011 108
1863 4070 178 4073 27 4066 23 3739 286 4020 200 4052 83 4039 169
2319 4071 99 4035 141 4060 173 4041 161 4021 162 4075 158 4037 19
2 4046 31
1486 4010 51 4025 259 4059 213 4069 182 4044 190
1445 4073 111 4039 289 4048 83 4063 254 4021 179
9 4037 64
16 4043 41
252 4064 79 4038 97 4022 135 4057 49
16 4044 83
2011 4064 262 4055 49 4060 144 4037 241 4022 79 4081 102
2 4025 37
4268 4086 264 4085 153 4062 91 4051 213 4038 377 4025 40 4069 218 4093 68 4092 47 4064 243
2419 4057 144 4076 27 4089 129 4037 213 4049 173 4075 71 4081 91
1 4037 6
11 4069 59 4059 91
1901 4071 104 4052 254 4021 160 4073 290 4078 123 4074 27
1886 4093 88 4038 135 4059 243 4055 79 4081 127 4057 262
2911 4043 208 4011 35 4088 231 4044 200 4069 79 4083 148 4082 18 4047 158 4072 122
2 4048 23
1 4021 16
2 4043 34
3808 4082 13 4095 65 4109 170 4059 218 4103 150 4114 13 4087 13 4083 243 4098 41 4051 182 4065 79 4044 279 4085 184 4062 59
2991 3747 173 3763 10 4080 12 4097 155 3739 226 4048 178 4091 220 4073 183
1033 4078 186 4075 93 4049 99 4063 104 4021 123
2717 4088 105 4043 123 4099 179 4079 64 4077 138 4096 131 4065 122 4046 239
3155 4052 111 4063 290 4094 250 4102 175 4097 15 4070 183 4100 14 4048 27 4078 149
2 4063 27
1917 4105 201 4049 158 4071 93 4104 28 4084 13 4060 71 4089 98 4081 78 4078 171
2 4060 27
2304 4072 138 4090 45 5095 66 5136 181 4096 350 4046 188 5105 60 5152 65
2550 4063 123 4071 186 4104 277 4110 24 4102 114 4075 171 4073 149
20 4072 64
1 4070 12
3922 4123 286 4089 92 4060 91 4105 151 4057 102 4124 41 4075 78 4106 72 4111 19 4093 208 4121 59 4064 127
18 4069 13 4065 18 4083 66
1847 4069 243 4108 167 4103 144 4065 148 4088 115 4082 66 4098 4
1 4075 13
1023 4069 184 4125 57 4121 59 4086 191 4109 54 4059 153 4093 125
3759 4107 52 4085 191 4092 37 4059 264 4127 196 4109 214 4125 156 4093 175
1 4069 13
1713 4108 237 4099 153 4072 105 4065 231 4083 115
355 4060 129 4081 92 4075 98
3 4077 45
2009 4070 220 4126 86 3763 199 3784 250 4097 275 4113 101
35 4086 37 4059 47
1459 4106 95 4121 129 4059 68 4086 175 4085 125 4081 208 4064 88
2348 4101 201 4097 351 4073 250 4112 109 4102 87
6 4069 65
3626 4131 100 5152 229 4077 350 4128 85 4099 190 4072 131 4116 435
2881 4094 351 4112 174 4101 29 4091 275 4126 287 4073 15 4070 155
8 4069 41 4083 4
2484 4096 190 4088 153 4116 21 4119 48 4120 260 4072 179 4108 201
1 4073 14
106 4097 29 4094 201
659 4112 16 4073 175 4110 190 4094 87 4078 114
1307 4129 58 4083 144 4108 205 4114 87 4122 35 4069 150 4109 49
2121 4078 277 4105 371 4075 28 4110 240 4134 144
2711 4123 276 4118 77 4081 151 4134 141 4104 371 4075 201
44 4093 95 4081 72
5 4086 52
4164 4088 237 4130 129 4099 201 4122 27 4133 188 4083 167 4103 205 4120 220 4129 295
3595 4086 214 4127 332 4114 299 4129 205 4103 49 4069 170 4085 54
2968 4112 354 4134 139 4102 190 4104 240 4078 24 4142 48 4132 17
2 4081 19
2787 4097 174 4142 30 4102 16 4126 188 4110 354 4094 109
126 3784 89 4091 101
490 4109 299 4103 87 4069 13
51 3763 34 3784 93
3620 4131 176 4138 143 4096 435 4099 21 4120 266 4137 77
2 3784 30
12 4105 77
4 4099 48
1230 4108 220 4138 49 4099 260 4133 88 4116 266 4130 16
698 4124 208 4093 129 4085 59 4125 116 4081 59
16 4103 35 4108 27
3555 4081 286 4124 340 4143 110 4105 276 4140 13 4134 77
2720 4125 203 4141 7 4123 340 4121 208 4081 41
1869 4085 57 4127 229 4121 116 4124 203 4086 156
2669 4112 188 4097 287 3784 116 3806 120 4139 17 4091 86
2227 4086 196 4135 58 4125 229 4109 332
17 4096 85
1920 4144 42 4133 122 4108 295 4103 58 4109 205
69 4120 16 4108 129
2975 4136 200 5152 211 4116 176 5161 109 4096 100
1 4110 17
2150 4129 122 4138 65 4120 88 4108 188
1419 4123 77 4110 139 4105 141 4104 144
15 4127 58
68 4131 200
36 4116 77
282 4133 65 4116 143 4120 49
1 4126 17
1 4123 13
1 4124 7
114 4112 30 4110 48
93 4123 110
3 4129 42
80 2428 116 2431 95
4 2415 9 2408 47
2 2434 30
1 2425 14
2727 2436 164 4170 249 4158 237 2426 96 2420 118 2425 139 4169 104
63 2434 83 2419 89
1137 4160 346 2439 52 2408 302 2415 93 4159 34
1530 4165 65 2432 168 1418 138 4172 169 4176 2 2437 56 4168 67
4 2425 10 4177 18 2436 23
2777 2428 201 4171 172 4162 125 4180 230 2437 70 2431 256 4159 83 4182 152
4 2439 54
993 4173 253 4191 38 4161 57 2419 133 2427 111
7 2427 46
3268 4196 42 4149 237 4169 140 4502 229 4178 469 4170 92 2420 248
1812 4160 103 2431 161 4154 83 4180 102 4181 280 2408 249 4151 34
3350 4189 86 4179 111 4159 103 4181 302 4151 346 2439 489 4187 22 4184 60
1502 4156 57 4173 114 2427 132 2436 181 4175 72 4177 170
266 2437 51 2428 183 4154 125
2258 2439 267 4166 144 4190 67 2434 259 4179 369
1 2408 2
978 4172 93 3115 157 3145 123 1418 97 4152 65
2506 2419 195 4167 102 4173 138 4163 144 2434 90 4188 224 4197 73 4190 39
138 2434 74 4166 102
1215 4192 18 4152 67 4185 135 4182 79 4171 117 2437 199 4172 108
3813 4170 242 4149 104 4158 140 4196 126 4177 31 4191 92 4199 285 2436 122 4183 43
887 4169 242 4158 92 4149 249
1024 4154 172 4168 117 2437 213 4182 122
2224 4185 147 3145 102 4165 93 4168 108 4194 3 4152 169 4176 5 3175 18 3189 104
3280 4161 114 4166 138 2419 50 4202 105 4156 253 4177 272 4191 112 4188 151
19 2436 140 4177 26
31 4161 72 4177 18
1 4152 2 4172 5
1907 4161 170 4175 18 4153 18 4173 272 4191 204 4169 31 4174 26 2436 196 4183 12
2755 4196 137 4158 469 4540 355 4203 228 4502 132 4201 16
4529 4160 111 4219 38 4220 84 4163 369 4223 9 4190 307 2439 94 4197 23 4184 66 4200 194 4189 282 4209 127
1833 4154 230 4186 165 4182 48 4181 92 4193 155 4159 102
3100 4207 140 4159 280 4160 302 4189 229 4180 92 4200 105 4193 268
3466 4186 434 4208 391 4168 79 4180 48 4171 122 4154 152 4185 305
27 2436 19 4169 43 4177 12
48 4160 60 4179 66
2586 4208 204 4222 101 4198 59 4182 305 3189 356 4172 147 4218 117 4168 135
2004 4182 434 4215 13 4193 150 4180 165 4208 105
1 4160 22
2098 4202 255 4197 212 4195 8 4166 224 4209 75 4173 151 4214 101
1377 4160 86 4179 282 4200 327 4181 229
755 4197 162 4166 39 4163 67 4179 307
2230 4199 177 4213 88 4212 43 4211 213 4177 204 4173 112 4156 38 4205 100 4169 92 4204 65 4202 159
1 4168 18
2167 4210 137 4207 36 4180 155 4216 111 4181 268 4215 26 4186 150
5 3175 23 4172 3
1 4188 8
3407 4169 126 4224 224 4199 104 4178 137 4237 113 4221 171 4205 109 4206 96 4158 42 4217 154 4203 151
650 4190 162 4179 23 4188 212 4166 73 4209 88
7 4185 59
908 4169 285 4196 104 4205 202 4191 177
3214 4189 327 4219 355 4179 194 4181 105 4207 176 4227 105
1 4178 16
2858 4232 75 4214 183 4188 255 4191 159 4173 105 4226 7 4211 250
3357 4224 310 4196 151 4540 181 4567 238 4178 228
7 4191 65
1903 4196 109 4221 316 4191 100 4199 202 4211 133 4213 17
8 4196 96
1366 4210 59 4229 30 4193 36 4181 140 4200 176 4216 128 4227 215
3237 4182 391 4225 184 4239 119 4186 105 4185 204 4222 336 4215 37
1964 4214 202 4220 210 4197 88 4235 2 4179 127 4188 75 4228 118
175 4207 59 4216 48 4193 137
3356 4202 250 4212 85 4241 186 4221 209 4232 309 4205 133 4191 213
26 4211 85 4191 43
29 4205 17 4191 88
3556 4209 202 4220 214 4232 286 4261 108 4252 84 4188 101 4254 123 4202 183
2190 4244 143 4216 313 4208 37 4239 149 4250 10 4186 13 4225 186 4193 26 4227 225
1096 4210 48 4215 313 4193 111 4207 128 4227 102
132 4196 154 4224 35
3778 4234 25 4222 325 3221 238 4243 62 4242 275 4185 117 4257 17 3189 152 4256 242
2818 4258 31 4227 170 4179 38 4231 29 4220 123 4247 162 4200 355 4236 313
3236 4259 58 4214 214 4223 8 4252 231 4179 84 4263 59 4240 24 4219 123 4235 58 4209 210 4236 483
3078 4205 316 4245 16 4196 171 4248 29 4211 209 4237 276 4241 195
2362 4208 336 4239 141 4238 32 4242 95 4185 101 4218 325
3 4220 8 4179 9
2843 4217 35 4230 49 4255 200 4246 74 4196 224 4237 70 4203 310 4567 145 4249 87
530 4239 100 4215 186 4208 184
1 4202 7
4004 4244 108 4215 225 4229 38 4251 223 4247 55 4250 93 4216 102 4219 170 4207 215 4200 105
34 4209 118
8 4227 38 4207 30
19 4224 49
2 4219 29
2672 4202 75 4214 286 4254 158 4241 137 4264 82 4211 309
3 3221 50
19 3189 21 4218 25 3221 37
17 4220 58 4236 18 4209 2
2741 4219 313 4247 113 4259 176 4258 68 4235 18 4220 483
1868 4246 243 4224 70 4241 121 4266 97 4221 276 4196 113
2 4222 32
3502 4250 186 4260 321 4253 37 4208 119 4222 141 4242 207 4271 107 4225 100 4215 149
3 4220 24
2786 4265 45 4266 235 4248 201 4264 79 4232 137 4211 186 4237 121 4221 195 4262 28
4013 4239 207 4260 271 4218 275 4286 412 4222 95 4271 6 4278 309 4256 108
48 4218 62 3221 142
381 4215 143 4250 215 4227 108
1 4221 16
1518 4224 74 4249 160 4267 192 4266 58 4237 243
3261 4236 113 4289 22 4251 367 4287 81 4219 162 4273 161 4259 50 4258 87 4227 55 4268 15
136 4221 29 4241 201
831 4266 71 4255 60 4267 163 4224 87 4246 160
3511 4215 10 4251 146 4271 26 4272 306 4239 186 4297 43 4275 12 4244 215 4296 232 4280 239 4227 93
2523 4280 251 4289 96 4247 367 4250 146 4284 21 4227 223
2665 4269 40 4214 84 4220 231 4254 41 4281 168 4261 96 4259 327
4 4239 37
3580 4252 41 4274 39 4281 160 4264 225 4261 50 4232 158 4276 25 4283 121 4292 216 4214 123
2312 4267 246 4249 60 4294 157 4224 200 4612 313 4567 2 4601 114
2446 3221 221 4278 102 4285 125 3239 164 4288 104 4218 242 4242 108
1 4218 17
77 4236 68 4219 31 4247 87
2155 4302 65 4263 30 4220 58 4273 139 4236 176 4247 50 4252 327 4281 217 4287 101
1837 4242 271 4271 86 4272 221 4239 321 4286 68
243 4214 108 4254 50 4252 96
1 4241 28
9 4220 59 4259 30
1933 4232 82 4270 67 4241 79 4266 24 4283 278 4254 225
3 4241 45
3947 4246 58 4264 24 4304 53 4237 97 4283 273 4291 32 4306 45 4293 27 4249 71 4298 286 4282 57 4241 235 4267 167 4308 107
4252 4249 163 4246 192 4266 167 4291 232 4294 168 4307 102 4277 23 4255 246
1 4247 15
4 4252 40
4 4264 67
284 4239 107 4242 6 4286 1 4260 86 4250 26 4272 93
1900 4286 125 4260 221 4271 93 4299 93 4279 37 4250 306 4296 84
512 4247 161 4259 139 4287 101
3 4254 39
1 4250 12
2 4254 25
1 4267 23
1463 4285 62 4286 231 4288 237 4242 309 4301 83 4256 102 4314 159
3 4272 37
2095 4290 45 4289 216 4251 251 4250 239 4297 284
4019 4320 170 4330 36 4302 427 4292 132 4303 28 4311 153 4252 168 4259 217 4254 160
5 4266 57
1765 4305 8 4264 278 4292 225 4254 121 4313 70 4266 273 4308 61
2 4251 21
253 4278 62 4288 197 4256 125
2858 4242 412 4314 265 4278 231 4271 1 4272 125 4295 78 4260 68 4299 152
1105 4259 101 4302 142 4247 81 4273 101 4289 47 4300 129
3908 4285 197 4328 5 3264 153 4323 188 3239 204 3277 204 4301 79 4318 28 4256 104 4314 147 4278 237
1333 4300 207 4297 30 4251 96 4247 22 4309 30 4315 99 4280 216 4287 47
3 4280 45
1177 4266 32 4306 270 4304 27 4267 232 4307 94
2746 4313 115 4311 395 4312 43 4305 42 4283 225 4281 132 4254 216
2 4266 27
2611 4657 83 4635 242 4267 168 4307 115 4255 157 4612 154 4306 293
5 4286 78
3250 4250 232 4272 84 4297 337 4321 221 4310 260 4299 239
1503 4321 92 4280 284 4250 43 4289 30 4296 337 4315 98
1555 4308 175 4317 100 4306 183 4266 286
3512 4314 169 4347 106 4329 33 4286 152 4310 49 4343 153 4325 106 4296 239 4272 93 4321 165 4337 37
1219 4289 207 4315 228 4287 129 4302 109
40 4278 83 4288 79
3601 4287 142 4300 109 4334 19 4315 215 4331 335 4259 65 4281 427 4330 200
3 4281 28
66 4291 27 4306 63 4266 53
17 4283 8 4292 42
4252 4657 63 4317 169 4327 198 4307 126 4291 270 4342 360 4336 91 4298 183 4266 45 4294 293 4304 63 4345 74
533 4267 102 4294 115 4291 94 4306 126
2730 4335 218 4298 175 4313 362 4283 61 4327 79 4317 52 4266 107
3 4289 30
132 4296 260 4299 49
3178 4320 102 4333 82 4340 126 4292 395 4344 99 4322 59 4326 89 4330 111 4313 94 4281 153
6 4292 43
2523 4335 32 4350 147 4333 56 4316 66 4340 107 4292 115 4283 70 4308 362 4311 94
2298 4286 265 4299 169 4325 285 4278 159 4288 147 4328 103
3901 4324 22 4339 51 4348 122 4300 228 4297 98 4319 36 4331 66 4289 99 4338 132 4302 215 4321 149 4349 143
12 4313 66
649 4327 73 4298 100 4306 169 4308 52
2 4288 28
3 4315 36
434 4311 102 4281 170 4330 66
3317 4296 221 4337 127 4355 101 4297 92 4338 160 4315 149 4351 181 4343 55 4299 165
9 4311 59
327 4328 185 4288 188 3277 34
4 4315 22
3644 4371 138 4314 285 4332 35 4299 106 4359 242 4347 62 4328 243 4343 182 4341 4
8 4311 89
1016 4335 151 4345 155 4306 198 4317 73 4308 79
2987 3277 92 4288 5 4332 3 3305 321 4359 82 4314 103 4325 243 4341 127 4323 185
2 4299 33
3401 4353 361 4302 200 4320 66 4281 36 4331 122 4373 27 4357 39 4344 351 4311 111 4379 113
1279 4353 175 4315 66 4349 179 4302 335 4330 122
3 4325 35 4328 3
75 4311 82 4313 56 4340 77
1 4302 19
3269 4350 391 4313 32 4327 151 4345 244 4308 218 4361 311 4362 69 4346 32 4366 99
17 4306 91
199 4343 89 4299 37 4321 127
1029 4315 132 4339 1 4348 199 4351 118 4321 160
17 4338 1 4315 51
2098 4356 165 4350 89 4344 283 4333 77 4311 126 4367 105 4313 107
100 4328 127 4325 4
3379 4358 179 4306 360 4657 111 4368 279 4689 29 4345 219 4676 97
3312 4299 153 4337 89 4369 108 4355 187 4371 135 4325 182 4347 171 4354 29 4321 55
2833 4367 240 4340 283 4373 162 4311 99 4330 351
1660 4335 244 4342 219 4306 74 4327 155 4361 194 4358 32
3 4335 32
348 4343 171 4299 106 4325 62
4670 4349 209 4351 248 4372 124 4377 90 4315 122 4338 199 4352 24 4385 254 4364 184 4376 260
2114 4331 179 4364 74 4315 143 4348 209 4353 178
2389 4335 391 4313 147 4363 12 4356 129 4340 89 4366 213
1753 4355 171 4321 181 4377 55 4376 41 4348 248 4338 118
3 4348 24
2393 4349 178 4331 175 4379 103 4370 66 4330 361 4364 212
2 4343 29
1976 4321 101 4351 171 4387 126 4343 187 4369 222 4376 69
1275 4367 217 4366 74 4340 165 4350 129 4378 100
3 4330 39
463 4361 160 4345 32 4342 179 4368 40
2305 4371 133 4386 224 3305 124 4328 82 4365 65 4375 85 4325 242
2 3305 25
3945 4335 311 4381 197 4358 160 4383 288 4396 152 4382 15 4366 99 4345 194 4368 154
21 4335 69
1 4350 12
2304 4353 212 4385 105 4379 50 4349 74 4388 281 4348 184
8 4359 65
1399 4350 213 4356 74 4378 64 4361 99 4335 99 4381 129
2713 4344 240 4380 41 4340 105 4373 232 4356 217 4393 382 4378 226
3695 4342 279 4689 67 4697 40 4391 45 4718 214 4699 196 4383 116 4676 61 4358 40 4361 154 4720 8 4713 178 4695 104
1303 4355 222 4343 108 4371 158 4389 234
28 4353 66
1716 4369 158 4389 128 4397 1 4386 128 4359 133 4394 46 4343 135 4325 138
17 4348 124
2178 4344 162 4407 50 4393 158 4367 232 4379 400 4395 16 4330 27
341 3313 127 4384 83 3305 137 4375 45
1400 4408 53 3305 37 4386 283 4359 85 4374 45 4384 310
3477 4400 146 4405 72 4399 26 4355 69 4387 156 4377 167 4409 170 4348 260 4351 41 4385 82 4390 15
292 4348 90 4351 55 4376 167
2003 4381 190 4367 226 4356 100 4393 120 4366 64 4402 83 4401 115 4403 26
4138 4353 103 4388 264 4421 87 4373 400 4406 121 4330 113 4412 101 4407 250 4364 50 4413 192
2 4367 41
4024 4378 190 4410 261 4403 2 4396 167 4402 402 4426 93 4366 129 4361 197
1 4361 15
1096 4361 288 4396 176 4391 136 4368 116
3312 3349 143 4374 83 4425 79 4422 86 4408 93 4427 30 3313 211 3379 167 4375 310
1090 4388 189 4364 105 4376 82 4348 254 4405 110
3138 4404 182 4394 97 4408 108 4371 128 4411 93 4397 27 4359 224 4375 283
956 4376 156 4400 142 4389 170 4355 126
2773 4406 244 4398 47 4405 52 4379 264 4385 189 4364 281
3199 4404 273 4394 232 4387 170 4369 234 4371 128 4420 77 4400 213
1 4376 15
2843 4415 111 4718 201 4737 160 4383 136 4713 42 4731 39 4396 250 4414 207 4720 10 4368 45
33 3349 3 3313 47
2389 4378 120 4367 382 4373 158 4401 244 4417 108 4407 189
417 4404 44 4371 46 4389 232 4386 97
1 4373 16
3051 4391 250 4383 176 4381 167 4415 143 4361 152 4410 207
2 4386 27 4371 1
6 4388 47
2 4376 26
2229 4387 142 4376 146 4420 163 4409 186 4389 213 4416 155
1552 4402 361 4378 115 4393 244 4417 169
3592 4432 118 4410 64 4426 36 4378 83 4418 85 4417 94 4403 22 4439 28 4401 361 4381 402 4435 139
7 4378 26 4381 2 4402 22
1938 4420 9 4411 188 4423 106 4424 114 4389 273 4386 182 4419 15 4394 44
2855 4406 236 4388 52 4385 110 4376 72 4409 191 4421 174 4431 232
1121 4388 244 4405 236 4379 121 4421 93
3408 4417 192 4442 148 4379 250 4413 417 4393 189 4373 50
3024 4444 43 4422 98 4427 272 4411 297 4386 108 4451 119 4384 93 4375 53
2446 4441 75 4431 80 4376 170 4400 186 4405 191 4416 445
2588 4381 261 4435 72 4415 304 4426 26 4433 51 4443 161 4402 64 4396 207
2588 4404 188 4424 75 4408 297 4438 53 4386 93 4423 125 4444 311
63 4379 101
3272 4421 188 4407 417 4440 24 4445 158 4442 204 4379 192 4453 106
2045 4737 251 4428 77 4391 207 4450 446 4415 167 4436 118
3300 4410 304 4414 167 4430 19 4391 111 4396 143 4436 185 4428 60 4443 159 4429 118 4449 37
3704 4455 260 4424 246 4420 202 4464 39 4431 57 4409 445 4462 103 4400 155 4441 40
2562 4439 274 4401 169 4402 94 4442 143 4393 108 4407 192
5 4402 85
1 4404 15
1302 4389 77 4404 9 4424 250 4400 163 4416 202
2034 4445 135 4431 154 4413 188 4437 10 4406 93 4405 174 4447 89 4379 87
233 4408 98 4384 86 4427 73
271 4404 106 4424 191 4411 125
3435 4404 114 4438 81 4423 191 4452 65 4420 250 4446 81 4411 75 4462 111 4416 246 4444 158 4458 197
216 4384 79 3379 114 4427 98
108 4402 36 4381 93 4410 26
2372 3449 34 4451 185 4408 272 3404 156 4384 30 4434 100 4422 73 3379 113 4425 98
23 4415 60 4414 77
17 4415 118
1 4415 19
3553 4455 130 4441 81 4447 166 4416 57 4405 232 4409 80 4421 154 4461 293
261 4439 38 4402 118 4435 107
8 4410 51
48 4427 100
3938 4432 107 4410 72 4473 65 4472 73 4460 345 4456 17 4448 38 4454 186 4402 139 4465 114 4443 151 4439 228
1094 4449 263 4415 185 4414 118 4450 42
1 4421 10
85 4424 81 4444 72 4411 53
1953 4417 274 4435 228 4442 177 4456 11 4432 38 4402 28 4465 121
1 4413 24
131 4409 75 4431 81 4416 40
2499 4417 143 4407 148 4465 284 4413 204 4453 45 4439 177
3294 4415 159 4410 161 4435 151 4469 25 4449 108 4460 286 4475 85 4448 67 4463 349
2498 4459 203 4411 311 4424 158 4438 72 4467 28 4451 78 4408 43 4452 257
2608 4453 172 4413 158 4447 573 4465 151 4480 193 4421 135
9 4424 81
4048 4481 288 4421 89 4431 166 4485 11 4480 61 4491 1 4461 236 4445 573
20 4443 67 4435 38
3606 4803 168 4474 191 4809 37 4436 263 4450 205 4463 159 4477 37 4415 37 4457 73 4443 108
3200 4737 180 4777 77 4436 42 4790 223 4414 446 4449 205 4803 23
3345 4408 119 4427 185 3449 235 4459 531 4476 272 4444 78
3274 4424 65 4489 123 4478 180 4462 155 4458 211 4459 150 4444 257
443 4465 146 4413 106 4445 172 4442 45
21 4435 186
1540 4431 130 4461 71 4416 260 4471 43 4470 193 4462 89
2 4435 17 4439 11
6 4449 73
741 4424 197 4452 211 4462 60
3181 4444 203 4490 156 4478 150 4451 531 4476 78 4467 142 4452 150
2868 4496 12 4487 150 4435 345 4463 60 4472 168 4443 286 4475 222
3486 4471 58 4470 189 4455 71 4481 280 4466 150 4431 293 4468 33 4447 236 4479 78 4491 73
2791 4470 171 4455 89 4488 344 4452 155 4424 111 4464 21 4489 122 4840 221 4458 60 4416 103
3665 4475 215 4474 180 4496 8 4449 159 4460 60 4841 153 4848 140 4847 11 4487 35 4443 349 4843 65 4482 19 4493 118
18 4416 39 4462 21
3801 4472 174 4453 146 4439 121 4435 114 4480 255 4445 151 4483 85 4484 144 4442 284
34 4461 150
100 4459 142 4444 28
2 4461 33
7 4443 25
3743 4471 79 4479 136 4491 149 4845 174 4462 171 4461 189 4455 193 4488 353
134 4455 43 4470 79 4461 58
3762 4435 73 4460 168 4495 190 4484 151 4465 174 4487 131 4473 39 4492 313
14 4472 39 4435 65
3959 4493 137 4477 110 4825 188 4463 180 4843 283 4803 245 4842 72 4449 191
353 4463 215 4460 222 4443 85
3709 3448 88 4490 73 4451 272 4494 9 4498 127 4839 334 4499 80 4459 78 3449 242
59 4474 110 4449 37
1669 4489 216 4490 316 4459 150 4452 180
88 4461 78 4470 136 4488 20
2718 4495 230 4465 255 4447 61 4497 312 4445 193 4481 85 4483 59 4484 120
3408 4486 76 4852 14 4497 146 4849 204 4447 288 4480 85 4491 236 4461 280 4846 101
1 4463 19
34 4480 59 4465 85
1091 4465 144 4495 483 4472 151 4480 120 4492 105
1 4447 11
17 4481 76
1048 4841 223 4460 150 4472 131 4463 35 4492 100
2166 4851 93 4479 20 4470 353 4462 344 4845 45 4840 143 4850 88
2702 4462 122 4840 210 4850 122 4490 136 4478 216 4452 123 4857 109
3878 4873 79 4857 107 4862 247 4499 308 4478 316 4476 73 4489 136 4866 10 4459 156
1189 4461 73 4481 236 4470 149 4846 138 4845 95 4447 1
4027 4886 50 4484 105 4881 118 4472 313 4841 262 4865 201 4487 100 4883 176 4495 307
259 4463 118 4843 66 4474 137
15 3448 57 4476 9
4781 4864 104 4881 4 4472 190 4492 307 4844 31 4872 34 4480 230 4497 165 4875 131 4484 483 4879 111
2 4463 8 4460 12
3344 4495 165 4868 29 4480 312 4849 195 4864 229 4481 146 4874 56
203 3448 227 4476 127
1142 4476 80 4862 32 4839 194 4490 308 4859 60
1328 2748 249 4516 130 2730 117 2744 166 4509 46 4503 65
1 2749 11
3636 4540 50 2748 218 4508 12 4178 132 2736 107 2420 46 2433 193 4531 205 4158 229 4518 123
2107 2744 227 4504 113 4500 65 4528 56 2741 88 4529 12 4516 76 4512 294
300 2741 166 4503 113 4512 51 4505 61
4297 4547 106 4554 51 4522 292 4534 171 2741 119 4504 61 4545 59 2723 234 4510 271 4512 67 2746 14
3329 4523 90 2747 112 4521 76 4525 360 4511 103 2750 118 2758 189 4514 192 2737 55 4535 47
1 2745 21
1 4502 12
5 4500 46 2744 3
2343 4536 60 4505 271 2746 333 4524 17 4534 126 4520 237
702 2750 271 4513 123 4506 103 4523 104
3944 4503 294 4505 67 4522 390 4553 114 4528 207 4532 35 4550 76 4504 51 2741 108
3718 4517 434 4537 109 2750 152 4549 262 4526 32 4511 123 2759 193 4538 369 4523 111
1769 4506 192 4525 89 2747 261 4533 172
1 2759 12
2697 2748 114 4500 130 4528 293 4518 264 4503 76 4544 96
2448 4513 434 4520 102 2759 206 4537 115 4530 22 2745 95
2952 2748 162 4516 264 4539 29 4544 249 4531 298 4502 123
1 2746 17
1961 4536 486 2746 74 4537 51 4510 237 4517 102 2745 83
11 4506 76
1724 4545 148 4512 390 4505 292 4553 21
3748 4574 89 4511 104 4535 179 4525 258 4548 337 4560 163 4527 68 4513 111 4506 90 4538 112
1 4510 17
3799 4542 12 4552 275 4535 157 4523 258 4560 162 4514 89 4543 25 4506 360 4533 188
2 4513 32
19 4523 68
1861 4550 227 4529 2 4544 125 4516 293 4512 207 4503 56
1 4528 2 4503 12
1 4517 22
2540 4544 90 4518 298 4541 16 4502 205 4567 84 4540 326 4564 112
3 4512 35
1310 4514 172 4525 188 4552 189
1123 4536 64 4547 196 4510 126 4505 171
301 4506 47 4523 179 4525 157
3539 4559 101 4547 109 4520 486 4551 18 4537 79 4546 156 4510 60 4534 64 4556 274
1123 4536 79 4517 115 4513 109 4520 51 4549 101 4546 101
1291 4523 112 4549 89 4548 203 4513 369
4 4518 29
1820 4531 326 4567 93 4203 181 4502 50 4178 355
1 4531 16
1 4525 12
2 4525 25
2935 4516 96 4561 34 4566 94 4564 56 4531 90 4528 125 4550 64 4573 137 4569 33 4563 118 4570 172 4518 249
2943 4547 122 4575 161 4505 59 4554 151 4522 148 4571 249 4553 283
2873 4559 59 4583 219 4556 168 4562 316 4537 101 4536 156 4549 145 4588 58
2259 4558 15 4559 215 4536 109 4554 74 4545 122 4557 70 4571 62 4572 181 4505 106 4534 196
2307 4538 203 4549 72 4523 337 4565 283 4555 23 4574 110
1902 4546 145 4565 58 4562 262 4537 101 4513 262 4568 94 4548 72 4538 89
2361 4566 358 4563 50 4528 227 4512 76 4553 164 4544 64
1 4536 18
3498 4533 189 4578 12 4525 275 4560 230 4581 75 4576 327
1726 4566 155 4550 164 4522 21 4545 283 4575 166 4512 114
225 4547 74 4505 51 4545 151
1 4548 23
925 4559 119 4536 274 4546 168
8 4547 70
1 4547 15
2427 4583 78 4588 30 4547 215 4546 59 4536 101 4572 364 4579 12 4556 119
2771 4576 156 4578 10 4525 162 4552 230 4574 180 4523 163 4589 132 4593 162
2 4544 34
2265 4583 53 4549 262 4546 316 4568 61 4592 110 4565 233 4582 18
202 4566 150 4550 50 4544 118
345 4544 56 4569 44 4531 112 4567 80
3760 4568 132 4549 58 4592 130 4577 45 4548 283 4562 233 4574 112 4600 53 4584 327
3093 4570 103 4563 150 4575 92 4580 352 4591 231 4544 94 4553 155 4550 358
3928 4531 84 4595 13 4564 80 4255 2 4224 145 4540 93 4601 265 4203 238 4569 486
196 4562 61 4565 132 4549 94
2302 4570 336 4612 122 4564 44 4609 71 4610 12 4544 33 4601 20 4573 48 4567 486 4613 101
2640 4566 103 4599 14 4580 293 4609 152 4544 172 4569 336
1294 4545 249 4572 146 4547 62 4585 177 4575 104
4432 4588 184 4586 36 4579 162 4587 28 4585 232 4559 364 4571 146 4547 181 4605 171 4594 10
107 4544 137 4569 48
2242 4589 340 4548 110 4565 112 4584 162 4523 89 4560 180
2492 4585 94 4545 161 4596 138 4591 174 4566 92 4603 269 4571 104 4553 166
1299 4560 156 4593 59 4552 327 4581 326
5 4565 45
4 4552 12 4560 10
115 4572 162 4559 12
1954 4570 293 4591 231 4566 352 4609 83 4604 100
2742 4576 326 4618 185 4552 75 4593 349 4590 110 4611 39 4615 19
1 4562 18
762 4559 78 4588 170 4592 165 4562 53 4546 219
2137 4565 327 4589 55 4600 94 4574 162 4607 263 4598 122
3179 4596 384 4575 94 4594 67 4623 27 4605 256 4571 177 4616 18 4572 232 4625 228
5 4572 36
4 4572 28
2264 4559 30 4583 170 4592 76 4597 43 4606 163 4605 116 4572 184 4619 170 4546 58
2744 4560 132 4598 219 4593 299 4574 340 4584 55 4608 19 4611 224
19 4581 110
1745 4566 231 4575 174 4602 11 4603 52 4580 231 4604 281
2572 4600 326 4614 49 4583 165 4562 110 4588 76 4606 154 4565 130
2264 4576 59 4589 299 4581 349 4611 303 4560 162
18 4572 10 4585 67
1 4567 13
1528 4575 138 4623 206 4585 384 4603 147
3 4588 43
2630 4589 219 4584 122 4626 58 4607 432 4611 287 4639 263
1 4570 14
4123 4629 25 4565 53 4592 326 4584 94 4621 44 4633 159 4607 309 4614 3 4628 30 4620 200
697 4569 20 4567 265 4612 129 4255 114
1 4591 11
1915 4604 182 4623 258 4617 13 4622 99 4596 147 4591 52 4575 269
3643 4622 235 4603 182 4580 100 4591 281 4630 291 4627 139 4609 315
1605 4625 60 4619 149 4588 116 4572 171 4585 256
878 4588 163 4614 92 4624 2 4619 86 4592 154 4620 46
4242 4633 178 4598 432 4584 263 4600 309 4639 153 4644 166
1 4589 19
3504 4570 152 4641 17 4580 83 4604 315 4613 438 4645 48 4636 160 4569 71 4630 71
1 4569 12
4117 4589 224 4593 303 4618 208 4637 168 4581 39 4598 287 4634 233 4639 82
2455 4601 129 4613 213 4635 196 4569 122 4294 154 4631 14 4255 313
2335 4609 438 4635 220 4645 45 4569 101 4649 40 4612 213
77 4600 3 4592 49 4606 92 4620 25
1 4581 19
2 4585 18
1 4603 13
2017 4581 185 4611 208 4637 128 4640 49
3615 4625 115 4650 156 4632 282 4620 264 4606 86 4605 149 4624 236 4588 170
3003 4628 71 4642 378 4606 46 4614 25 4600 200 4633 47 4619 264 4650 37 4624 47
7 4600 44
2778 4604 235 4653 155 4651 151 4625 11 4636 139 4603 99 4623 449 4630 267
3106 4625 385 4622 449 4638 14 4603 258 4596 206 4585 27
298 4606 2 4619 236 4620 47
3104 4651 71 4622 11 4632 228 4623 385 4643 274 4605 60 4585 228 4619 115
3 4598 58
48 4604 139
20 4600 30 4620 71
1 4600 25
1514 4609 71 4604 291 4622 267 4636 255
1 4612 14
2151 4648 98 4625 228 4643 135 4650 58 4619 282 4658 108
3104 4647 56 4654 250 4655 120 4607 178 4600 159 4620 47 4642 222 4644 174
580 4639 81 4611 233 4637 212
3236 4646 8 4657 402 4294 242 4613 220 4649 153 4661 44 4612 196
2902 4653 213 4622 139 4666 110 4645 116 4630 255 4649 188 4609 160
2765 4611 168 4639 265 4659 121 4640 313 4634 212 4618 128
1 4623 14
3369 4637 265 4644 200 4611 82 4652 266 4598 263 4659 102 4607 153 4634 81
1910 4637 313 4659 128 4618 49 4662 172
1 4609 17
3293 4664 156 4620 378 4650 166 4633 222 4654 221 4667 28
3265 4669 86 4632 135 4648 165 4658 230 4674 153 4651 296 4625 274 4656 35
2755 4660 138 4652 166 4639 200 4655 166 4665 173 4607 166 4633 174
804 4609 48 4649 189 4636 116 4613 45
1 4635 8
5 4633 56
175 4643 165 4632 98
2414 4666 84 4613 40 4635 153 4645 189 4663 269 4636 188 4657 71
1163 4667 87 4619 156 4620 37 4642 166 4658 147 4632 58
1593 4625 71 4674 53 4669 98 4643 296 4622 151 4653 231
2796 4659 132 4668 110 4639 266 4673 137 4665 21 4660 70 4644 166 4671 24 4677 169 4679 20
3433 4672 276 4636 213 4674 26 4651 231 4622 155 4666 213 4680 138 4669 63
1500 4664 384 4642 221 4665 68 4655 59 4633 250
583 4633 120 4654 59 4644 166 4665 128
2 4643 35
3175 4635 402 4306 63 4661 96 4663 173 4342 111 4676 251 4294 83 4649 71
2131 4643 230 4674 243 4650 147 4667 225 4632 108
1845 4639 102 4640 128 4652 132 4673 110 4670 219 4662 37 4637 121
91 4644 138 4652 70 4665 94
33 4635 44 4657 96
2091 4706 100 4710 33 4670 346 4659 37 4692 149 4640 172 4683 18
3275 4695 217 4657 173 4684 17 4666 276 4649 269 4676 140
3574 4642 156 4654 384 4691 89 4685 389 4681 23 4667 342 4665 260
2830 4654 68 4686 13 4688 224 4660 94 4655 128 4685 104 4679 89 4652 21 4664 260 4644 173
2025 4649 84 4680 163 4695 64 4663 276 4653 213 4636 110
3699 4664 342 4691 317 4696 15 4674 79 4658 225 4690 107 4650 87 4642 28
27 4652 110
368 4674 294 4651 98 4643 86 4653 63
2837 4673 165 4710 50 4675 19 4682 17 4694 126 4703 27 4706 118 4659 219 4662 346
2 4652 24
2888 4653 276 4687 154 4701 120 4707 61 4704 166 4674 224 4680 241
2108 4659 110 4677 273 4670 165 4694 180 4652 137 4703 72
4362 4696 364 4687 154 4672 224 4690 71 4658 243 4701 27 4653 26 4669 294 4651 53 4667 79 4678 43 4643 153
1 4670 19
2123 4699 88 4663 140 4368 61 4695 113 4342 97 4657 251 4689 56
3229 4673 273 4709 121 4723 14 4679 83 4721 135 4703 191 4688 270 4652 169
11 4674 43
329 4677 83 4652 20 4665 89 4688 75
2998 4707 396 4672 241 4653 138 4695 114 4666 163 4716 110 4700 137
2 4664 23
1 4670 17
1 4662 18
1 4663 17
3228 4664 389 4691 50 4702 173 4693 91 4698 63 4714 7 4708 321 4688 180 4665 104
1 4665 13 4688 1
279 4672 154 4674 154 4701 41
1885 4677 270 4665 224 4685 180 4686 1 4698 126 4679 75 4709 110
81 4368 67 4342 29 4676 56
156 4667 107 4674 71 4696 45
2705 4711 277 4667 317 4696 78 4664 89 4685 50 4702 238 4705 83
130 4710 103 4662 149
21 4685 91
260 4673 180 4670 126 4703 98
3174 4666 64 4663 217 4724 146 4680 114 4713 243 4716 155 4676 113 4719 63 4368 104
2255 4711 190 4674 364 4667 15 4690 45 4701 311 4691 78
11 4368 40
398 4685 63 4688 126 4709 75 4714 78
98 4676 88 4368 196
11 4680 137
3629 4711 225 4712 112 4696 311 4674 27 4722 215 4704 133 4687 41 4672 120 4730 199 4729 104
3005 4725 206 4691 238 4728 153 4711 98 4685 173 4708 73 4734 20 4735 85
4158 4673 72 4677 191 4727 89 4721 32 4670 27 4736 249 4709 100 4742 77 4710 433 4694 98 4715 30 4745 1 4740 119 4723 64
1964 4722 94 4726 45 4701 133 4672 166 4712 63 4707 184 4729 121
6 4691 83
404 4670 118 4710 205 4662 100
2274 4680 396 4704 184 4726 415 4672 61 4716 102
1357 4702 73 4725 103 4714 289 4685 321
3040 4736 246 4677 121 4721 208 4698 75 4714 334 4703 100 4688 110 4749 119 4735 53
2797 4662 33 4703 433 4692 103 4727 271 4670 50 4706 205
3755 4728 322 4701 225 4747 179 4702 98 4717 9 4691 277 4748 27 4730 223 4696 190
36 4704 63 4701 112
3213 4695 243 4724 58 4391 42 4737 156 4719 55 4733 41 4732 323 4731 174 4718 127 4368 178
2300 4725 30 4685 7 4698 78 4708 289 4709 334 4735 262
2 4703 30
3468 4732 251 4695 155 4707 102 4724 274 4741 4 4680 110 4756 165 4726 235 4754 154
1 4711 9
639 4391 201 4713 127 4368 214
40 4695 63 4713 55
2 4391 10 4368 8
430 4677 135 4709 208 4703 32
497 4701 215 4704 94 4729 198
14 4677 14 4703 64
643 4716 274 4732 41 4713 58 4695 146
876 4702 206 4735 164 4714 30 4708 103 4739 38
3005 4743 106 4707 415 4704 45 4738 19 4741 69 4729 78 4754 312 4716 235
2278 4703 89 4710 271 4740 165 4751 317
3503 4711 322 4735 200 4761 112 4755 13 4759 102 4747 55 4702 153 4760 179 4748 36
2249 4743 212 4750 121 4704 121 4738 11 4744 9 4701 104 4730 155 4722 198 4746 71 4726 78 4753 117
1771 4711 223 4744 6 4753 162 4701 199 4729 155 4747 210
215 4391 39 4713 174 4737 154
1833 4737 134 4756 93 4733 34 4724 41 4716 251 4713 323
24 4732 34 4713 41
1 4702 20
4553 4770 73 4765 240 4763 112 4749 155 4709 53 4725 164 4758 117 4736 16 4739 157 4714 262 4702 85 4761 298 4728 200 4752 16
3620 4740 78 4774 130 4763 169 4749 129 4745 12 4735 16 4703 249 4709 246 4757 206
3693 4713 156 4756 132 4391 160 4450 180 4732 134 4731 154 4777 106 4414 251
2 4726 19 4729 11
83 4735 157 4725 38
3343 4789 40 4775 171 4767 54 4742 45 4703 119 4762 69 4727 165 4736 78 4751 252 4757 467
9 4726 69 4716 4
41 4703 77 4740 45
3640 4768 141 4753 166 4754 297 4729 212 4726 106 4750 99 4771 312
1 4730 6 4729 9
1 4736 12 4703 1
10 4729 71
3416 4753 282 4760 258 4783 140 4772 9 4728 55 4768 226 4748 97 4711 179 4730 210
47 4711 27 4747 97 4728 36
337 4735 155 4709 119 4736 129
84 4743 99 4729 121
3424 4769 34 4767 11 4764 67 4788 74 4740 252 4775 298 4727 317
1 4735 16
1230 4747 282 4730 162 4743 166 4768 117 4729 117
3457 4716 154 4743 297 4782 183 4756 267 4726 312 4771 168
1 4728 13
2960 4737 132 4780 45 4732 93 4777 215 4716 165 4782 181 4786 59 4754 267
1932 4736 206 4740 467 4762 49 4789 95 4774 156
27 4735 117
155 4728 102 4760 52 4761 65
2923 4747 258 4783 148 4776 239 4766 32 4761 88 4787 83 4728 179 4759 52
3517 4759 65 4735 298 4760 88 4770 163 4792 107 4765 168 4776 147 4781 149 4728 112 4778 95
12 4757 49 4740 69
1233 4736 169 4765 188 4779 12 4781 18 4774 115 4735 112 4773 42
59 4751 67
1038 4781 190 4735 240 4761 168 4763 188
16 4776 17 4760 32 4787 19
16 4751 11 4740 54
3781 4794 23 4743 141 4810 78 4747 226 4753 117 4796 57 4783 422 4771 349
2 4751 34
151 4735 73 4761 163
2944 4743 312 4768 349 4796 142 4791 137 4754 168 4785 74 4782 63
1 4747 9
5 4763 42
1684 4736 130 4784 8 4789 84 4779 282 4757 156 4763 115
3443 4740 171 4802 259 4788 111 4807 274 4751 298 4789 155
2257 4798 45 4805 82 4792 55 4795 52 4761 147 4799 120 4787 178 4760 239 4766 17
1549 4756 215 4450 77 4790 187 4786 133 4737 106
11 4761 95
2056 4800 24 4781 158 4789 267 4774 282 4806 103 4763 12 4808 248
3 4756 45
2394 4800 42 4761 149 4765 190 4801 233 4779 158 4792 71 4808 92 4763 18
3088 4813 83 4756 181 4793 35 4791 225 4754 183 4811 207 4771 63 4786 144
3538 4760 148 4787 184 4768 422 4805 111 4818 211 4820 42 4747 140 4810 290 4804 17
1 4774 8
6 4771 74
2011 4782 144 4816 17 4814 170 4790 199 4811 107 4777 133 4756 59
1888 4783 184 4776 178 4766 19 4797 105 4760 83 4805 321
705 4807 107 4751 74 4775 111
1890 4802 122 4740 40 4779 267 4757 95 4774 84 4775 155 4806 166
1663 4450 223 4803 193 4814 42 4777 187 4815 79 4786 199
791 4782 225 4796 194 4813 81 4771 137
1061 4781 71 4801 95 4761 107 4799 157 4776 55
5 4782 35
2 4768 23
14 4799 21 4776 52
1804 4771 142 4813 155 4791 194 4768 57 4827 70 4810 233
12 4787 105
3 4776 45
2217 4822 335 4801 134 4792 157 4776 120 4805 271 4795 21
21 4779 24 4781 42
3822 4824 111 4799 134 5186 23 5189 115 4792 95 4830 214 4781 233 5196 33 4823 98 4822 391 5190 211 4808 245
788 4789 122 4775 259 4806 230
1748 4815 146 4790 193 4450 23 4809 34 4825 132 4449 168 4474 245
2 4783 17
3197 4783 111 4799 271 4828 76 5188 60 4822 156 4787 321 4821 27 4835 130 4776 82 4818 128
3591 4808 41 4802 230 4838 99 4832 71 5185 68 4807 167 4819 291 4789 166 4779 103 4829 74
3407 5185 152 4788 107 4832 21 4775 274 4806 167 4836 193
2404 4812 16 4819 277 4781 92 4779 248 4830 108 4806 41 4824 80 4801 245
12 4803 34 4449 37
3102 4796 233 4768 78 4827 174 4818 232 4831 283 4783 290 5184 88
2590 4813 409 4786 107 4814 105 4837 141 4782 207 4826 130
1 4808 16
3289 4796 155 4811 409 4827 408 4782 83 4837 27 4791 81 5195 31 4833 161
1199 4826 54 4817 63 4815 74 4786 170 4811 105 4790 42 4825 172
595 4790 79 4825 196 4803 146 4814 74
1 4786 17
5 4814 63
1266 4831 38 4810 232 4783 211 4828 128 4805 128
2423 4838 126 4806 291 5193 57 5192 129 4830 149 4808 277
2 4783 42
2 4805 27
2477 4799 335 5189 178 5188 104 4801 391 4805 156
17 4801 98
64 4801 111 4808 80
4234 5194 136 4853 124 4826 118 4837 132 4814 172 4843 71 4834 88 4803 132 4870 349 4842 70 4474 188 4815 196
577 4837 136 4811 130 4825 118 4814 54
2930 4796 70 5187 344 4813 408 5198 154 5195 77 5184 110 4810 174
1986 4818 128 5188 135 4835 158 4805 76 4831 310 5203 46
13 4806 74
2737 4819 149 5206 124 5192 368 4808 108 4801 214 5190 147
3475 4828 310 4810 283 4818 38 5203 262 5214 81 5184 458
39 4807 21 4806 71
28 4813 161
18 4825 88
605 5188 251 4805 130 4828 158
214 5185 85 4807 193
4148 4825 132 5195 228 5209 192 4811 141 4813 27 5199 291 5191 92 5194 60 4826 136
1387 5200 47 4806 99 5185 134 5192 199 5204 104 4819 126
2622 3812 166 4499 194 4859 193 3448 81 4861 264 4476 334
1648 4850 186 4488 143 4489 210 4462 221
2754 4848 110 4854 18 4858 172 4463 153 4487 223 4865 130 4492 262
84 4474 72 4825 70
2588 4853 137 4863 57 4848 224 4867 52 4825 71 4463 65 4493 66 4474 283 4856 102 4869 144
4 4495 31
1913 4851 328 4860 17 4491 95 4470 174 4855 140 4488 45 4846 119
655 4849 54 4491 138 4845 119 4481 101 4855 91
1 4463 11
1336 4843 224 4863 161 4841 110 4463 140 4858 94
1625 4497 195 4481 204 4877 1 4855 154 4874 188 4846 54 4852 1
3483 4851 290 4857 274 4489 122 4880 234 4871 14 4896 49 4488 88 4840 186
2668 4880 168 4845 328 4855 30 4488 93 4850 290
1 4481 14 4849 1
973 4870 127 4843 137 4825 124 4869 38
1 4841 18
1933 4845 140 4888 70 4851 30 4846 91 4874 169 4880 106 4849 154
31 4843 102
1944 4903 12 4489 109 4490 107 4873 288 4896 128 4850 274
813 4863 92 4841 172 4865 125 4848 94
3549 4887 79 4861 177 4839 193 4876 354 4862 505 4499 60
1 4845 17
780 4839 264 3812 90 4859 177 4876 79
4190 4490 247 4859 505 4901 45 4890 86 4908 156 4873 220 4499 32 4911 177 4876 111
3175 4889 125 4899 90 4907 142 4865 141 4848 161 4843 57 4858 92 4869 309
1798 4884 104 4497 229 4885 208 4868 43 4875 90 4874 136 4878 26 4495 104
1746 4492 201 4863 141 4883 108 4858 125 4841 130 4894 24 4889 188
1 4490 10
11 4869 8 4843 52
11 4864 43 4497 29
3261 4853 38 4863 309 4870 108 4891 240 4898 98 4899 53 4867 8 4843 144 4892 17
2827 5220 125 5199 282 4892 112 4869 108 4825 349 5194 102 4853 127
1 4850 14
2 4495 34
3363 4896 94 4901 66 4905 70 4903 43 4890 43 4862 220 4490 79 4908 476 4912 17 4857 288
2779 4900 249 4884 146 4855 169 4497 56 4893 13 4888 204 4849 188 4864 136 4877 134
414 4495 131 4864 90 4879 41 4885 22 4882 132
2964 3857 305 3833 191 4911 140 4862 111 4909 109 4859 354 3812 47 4895 14 4861 79
45 4849 1 4874 134
1 4864 26
465 4882 146 4881 44 4875 41 4495 111
3163 4851 168 4855 106 4888 246 4896 66 4906 125 4850 234 4905 194
999 4882 93 4904 117 4495 4 4902 34 4883 89 4879 44 4897 13 4492 118
2252 4879 146 4881 93 4925 61 4897 146 4885 380 4904 142 4875 132 4921 134
2132 4902 131 4889 120 4492 176 4904 136 4865 108 4917 49 4881 89
2632 4864 104 4900 209 4885 327 4916 159 4874 146 4921 170
2087 4882 380 4864 208 4875 22 4884 327 4921 77
4 4492 50
8 4859 79
2651 4900 313 4913 18 4874 204 4880 246 4855 70 4926 112 4906 163
1641 4917 48 4863 125 4883 120 4902 105 4914 169 4918 3 4907 96 4894 72 4865 188
85 4873 43 4862 86
4256 4892 204 4919 431 4899 200 5245 298 4898 113 4941 41 4949 105 4935 41 5252 110 4869 240 5273 100
1186 4870 112 4869 17 4891 204 5220 274 5245 77
1 4874 13
29 4865 24 4889 72
1 4876 14
647 4905 117 4857 128 4850 49 4880 66 4873 94
100 4882 146 4881 13
184 4869 98 4891 113
1142 4907 64 4919 242 4915 12 4922 46 4869 53 4863 90 4914 39 4891 200
1656 4916 182 4874 249 4884 209 4888 313 4926 120
55 4873 66 4862 45
249 4904 41 4889 105 4883 131 4881 34 4917 49
8 4873 43 4857 12
1701 4882 142 4917 129 4881 117 4883 136 4902 41 4910 19 4925 173
1513 4880 194 4920 108 4924 247 4873 70 4908 108 4896 117 4906 62
3021 4937 62 4880 125 4943 143 4888 163 4926 226 4920 259 4905 62
429 4899 64 4863 142 4914 101 4889 96
3141 4862 156 4911 102 4924 173 4873 476 4930 269 4932 86 4923 26 4905 108
1641 4928 157 4876 109 4911 79 3848 68 3875 183 3857 97 3905 94 4936 8
1 4904 19
1466 4909 79 4928 340 4876 140 4929 13 4908 102 4862 177 4932 41
1 4873 17
1 4888 18
3494 4951 57 4941 69 4917 235 4907 101 4947 6 4889 169 4922 150 4944 62 4899 39 4950 45 4918 7 4954 133 4919 228
1 4899 12
3086 4921 227 4900 182 4884 159 4926 188 4946 328 4934 210
1759 4902 49 4944 72 4889 48 4927 15 4904 129 4883 49 4925 227 4914 235
1 4914 7 4889 3
3137 4922 25 4935 8 4941 471 4899 242 4891 431 4914 228
917 4924 180 4905 108 4906 259 4937 57
2867 4940 343 4885 77 4925 233 4884 170 4933 74 4946 32 4882 134 4916 227
150 4899 46 4919 25 4914 150
8 4908 26
2566 4930 155 4939 259 4937 74 4920 180 4908 173 4905 247
3936 4956 262 4882 61 4953 32 4940 122 4944 173 4957 70 4917 227 4904 173 4921 233
3097 4943 228 4931 41 4900 120 4955 131 4906 226 4888 112 4946 186 4945 56 4916 188
1 4917 15
3009 4911 340 4952 265 4942 13 3905 127 4932 305 4909 157
1 4911 13
2323 4939 270 4924 155 4932 201 4908 269 4938 31
3 4926 41
2848 4911 41 4961 206 4952 183 4930 201 4928 305 4908 86 4939 132 4974 125
8 4921 74
96 4916 210
4 4891 41 4919 8
32 3875 148 3905 28 4909 8
3358 4967 210 4968 249 4965 99 4920 57 4963 43 4924 74 4943 351 4906 62 4939 244
3 4930 31
3389 4961 172 4930 270 4932 132 4967 103 4924 259 4937 244 4964 152
1190 4946 103 4956 65 4958 164 4925 122 4921 343
3890 4950 110 4919 471 4960 111 4947 35 4914 69 4891 41 4949 132 4962 314 4951 189 4948 10 4959 117
1 4928 13
1657 4906 143 4926 228 4937 351 4955 185 4963 20
2186 4969 258 4917 72 4956 101 4954 439 4914 62 4925 173
6 4926 56
3914 4940 103 4955 119 4926 186 4966 353 4958 164 4972 38 4916 328 4921 32
7 4914 6 4941 35
1 4941 10
790 4891 105 4959 132 5273 56 4941 132 5287 54
173 4951 48 4914 45 4941 110
2273 4950 48 4971 52 4941 189 4975 137 4962 196 4954 397 4982 79 4914 57
3402 4932 183 4974 171 3905 143 4981 167 3918 30 4928 265 4980 76 3922 132
3 4925 32
2502 4982 161 4951 397 4969 65 4944 439 4977 95 4914 133
2257 4946 119 4926 131 4973 156 4963 146 4968 114 4966 102 4943 185
1705 4976 89 4940 65 4944 101 4925 262 4958 158 4957 7 4969 163
9 4956 7 4925 70
1631 4976 158 4946 164 4972 137 4956 158 4940 164
1237 5304 44 4962 119 5287 122 4949 132 4978 147 4941 117
58 4941 111 4962 42
2275 4974 269 4932 206 4964 295 4939 172
2114 4951 196 4970 264 4978 65 4960 42 4959 119 4975 186 4941 314
275 4973 36 4943 20 4968 105 4937 43 4955 146
2437 4989 118 4988 131 4992 4 4961 295 4939 152 4986 170 4967 292
15 4937 99 4967 19
2109 4973 210 4984 166 4946 353 4972 136 4955 102
2543 4988 68 4995 22 4968 254 4965 19 4937 210 4939 103 4985 33 4964 292
2764 4973 317 4963 105 4955 114 4995 102 4937 249 4967 254
967 4956 163 4977 192 4944 258 4954 65 4976 23
4376 5330 189 5339 168 4978 377 5002 329 4975 178 4962 264
11 4951 52
1769 4999 65 4966 136 4958 137 4946 38 4984 141 4976 163 4996 125
3949 4984 235 4987 59 4963 36 5004 132 4966 210 4983 150 4968 317 4994 292 4995 97 4955 156
2481 4986 163 4961 269 4981 130 4997 212 4952 171 4932 125
2563 4982 91 4970 178 4951 137 4962 186 5002 41 4979 32 5000 255
2265 5006 116 5001 7 4972 163 4969 23 4977 218 4958 158 4996 127 4999 97 4956 89
2906 4982 142 4954 95 5006 93 5001 74 4990 112 4998 142 4969 192 4976 218
3337 4962 65 5287 227 5322 131 5311 330 4970 377 4959 147 5330 58
4 4975 32 4982 7
86 3922 13 4952 76 4981 65
3025 3922 68 4974 130 3973 263 5010 94 4952 167 4997 91 5007 11 4980 65 3947 555
3884 4977 142 4979 7 4998 219 5018 92 5019 88 5013 27 4991 62 4954 161 4951 79 4975 91 5000 353
24 4973 150
3694 4972 141 4999 305 5022 131 5008 148 4966 166 5015 43 4973 235 4994 96
2 4967 33
3594 5011 50 4989 173 4997 169 4992 10 5010 141 5027 147 5003 367 4974 163 5020 143 4964 170
3 4973 59
3472 5023 63 4995 610 4989 93 5029 52 4967 68 4993 104 5003 181 4964 131
656 4988 93 5003 100 4964 118 4986 173
129 4977 112 4998 141
3 4982 62
1 4986 10 4964 4
83 4988 104 5003 93
1357 5008 168 4973 292 5004 137 4984 96
3541 4988 610 4968 102 5012 29 5033 52 5024 25 5004 251 5030 232 5008 81 4967 22 4973 97 5029 275
896 5028 80 4976 127 5006 127 4999 338 4972 125
1271 4974 212 5010 179 4986 169 4981 91
3158 5018 281 5036 44 4982 219 5006 341 4977 142 5009 40 4990 141 5013 107
3437 4972 65 5022 126 4976 97 4996 338 4984 305 5028 90 5006 186
3670 4982 353 5016 37 5021 166 5019 396 5005 56 5002 75 4975 255
40 4977 74 4976 7
2065 5021 111 5017 201 4970 329 4975 41 5339 40 5016 109 5000 75
2239 5023 155 4993 93 4989 100 5032 45 5027 97 4986 367 5020 89 5014 149 4988 181
1298 4973 132 5008 145 5024 24 4994 137 4995 251
9 5000 56
4005 5036 167 4977 93 5028 257 4976 116 4996 127 5031 44 4998 341 4999 186 5041 279
1 4981 11
2654 5022 85 4984 148 5030 362 5015 216 4995 81 4994 168 5024 6 5004 145
4 4998 40
3410 4986 141 4997 179 5027 185 3973 316 5042 165 4981 94 4006 173 5025 8 5039 8 5046 1
4 4986 50
2 4995 29
168 4982 27 4998 107 5018 87
24 5003 149
416 4984 43 5008 216 5022 78
184 5002 109 5021 100 5000 37
1791 5021 267 5339 152 5035 60 5002 201 5370 156 5038 209
3675 4998 281 5019 397 5050 160 5013 87 5051 55 4982 92 5036 144 5053 30 5034 94
2199 5034 226 5021 72 4982 88 5018 397 5000 396
524 5027 118 5003 89 4986 143
1947 5038 89 5035 80 5000 166 5017 267 5019 72 5034 82 5002 111 5016 100
3290 4999 126 5045 223 5008 85 4984 131 5030 78 5015 78 5028 178
532 4988 63 5044 26 5032 140 5029 94 5003 155
10 4995 25 5004 24 5008 6
1 5010 8 3973 1
932 3973 182 3983 120 3964 45 4006 296
1821 5010 185 5032 128 5003 97 5037 144 5020 118 4986 147 5042 80
3143 5052 100 5022 178 5041 29 5054 196 5006 257 4996 80 5045 90 4999 90 5048 51
2697 4988 52 5047 17 5032 173 4995 275 5044 335 5033 113 5023 94
2962 4995 232 5043 20 5022 78 5045 101 5033 121 5049 215 5008 362 5040 203
8 5006 44
1882 5057 86 5029 173 5003 45 5023 140 5044 53 5037 283 5027 128
786 5029 113 5043 111 5044 97 4995 52 5030 121
2846 5074 83 5018 94 5060 142 5053 247 5055 26 5021 82 5019 226 5038 292 5062 87
110 5017 60 5021 80 5038 52
1072 5050 118 5006 167 5041 270 4998 44 5018 144
1826 5027 144 5032 283 5073 77 5075 9 5057 145 5042 241 5072 14
3314 5017 209 5383 29 5034 292 5370 272 5021 89 5035 52 5055 79 5062 322
1 5010 8 4006 2
604 5049 125 5043 126 5030 203
2047 5059 247 5050 30 5036 270 5064 35 5054 90 5028 29 5006 279
3392 5027 80 5072 271 5010 165 5046 24 5058 157 5037 241 4006 257
3761 5066 188 5070 15 5044 355 5030 20 5033 111 5040 126 5069 173 5089 73 5077 215 5063 21 5088 232 5049 164
2193 5069 89 5033 97 5065 44 5066 74 5023 26 5043 355 5057 95 5032 53 5029 335
2088 5061 234 5028 90 5049 155 5022 223 5054 242 5030 101
2 5010 1 5042 24
1 5029 17
3 5028 51
2785 5061 257 5043 164 5030 215 5045 155 5083 112 5077 151 5063 152 5040 125
3058 5081 88 5076 341 5036 118 5059 106 5085 7 5018 160 5053 277 5041 30 5051 3
9 5018 55 5050 3
209 5054 68 5028 100
2560 5081 40 5050 277 5079 93 5018 30 5034 247 5060 149 5074 153
3139 5041 90 5078 248 5052 68 5071 14 5067 192 5059 31 5045 242 5061 42 5028 196
44 5034 26 5038 79
1 4006 11
2236 5044 95 5032 86 5037 145 5089 97 5073 129 5087 190 5069 293
2225 4000 37 5042 157 5080 90 4031 305 5068 91 5082 7 5072 40 4006 284
2823 5041 247 5090 228 5064 91 5054 31 5076 151 5050 106 5067 249
814 5074 234 5034 142 5053 149
1749 5045 234 5078 208 5049 257 5083 166 5054 42
2132 5370 29 5091 560 5406 107 5381 7 5034 87 5074 188 5038 322
50 5043 21 5049 152
46 5041 35 5067 18 5059 91
3 5044 44
95 5043 188 5044 74
1933 5059 249 5064 18 5090 149 5078 280 5054 192 5106 10 5101 99 5098 107
84 5058 91 4031 69 4000 35
672 5044 89 5043 173 5057 293 5089 78
1 5043 15
1 5054 14
2932 5095 22 5096 394 5037 14 5099 38 5058 40 5073 273 5087 101 5086 86 5097 3 5075 7 5080 252 5042 271
1082 5087 66 5075 16 5072 273 5037 77 5057 129
3041 5062 188 5104 115 5103 47 5053 153 5091 61 5079 411 5034 83 5060 234
3 5037 9 5073 16 5072 7
1746 5081 110 5094 194 5059 151 5050 341 5093 33 5090 80
1036 5043 215 5084 152 5083 93 5088 54 5049 151
3756 5067 280 5092 138 5101 446 5054 248 5061 208 5083 62
1916 5110 237 5104 28 5103 19 5053 93 5074 411 5081 298 5108 30
734 5095 132 5072 252 5058 90 4031 41
2450 5108 145 5094 111 5050 88 5079 298 5112 191 5076 110 5102 7 5053 40
5 5058 7 4031 27
3780 5121 183 5084 312 5049 112 5114 10 5092 264 5077 93 5113 75 5101 56 5078 62 5061 166 5115 207
3458 5088 304 5083 312 5100 14 5089 147 5113 274 5126 137 5077 152
1 5050 7
36 5072 86
2165 5057 190 5096 61 5111 124 5089 347 5072 101 5107 82 5073 66
1240 5043 232 5084 304 5089 190 5077 54
4310 5088 190 5087 347 5069 78 5043 73 5057 97 5111 315 5130 19 5084 147 5126 227
2391 5076 80 5117 155 5119 83 5067 149 5059 228 5093 98 5098 21 5124 9 5106 68 5094 146
2551 5381 88 5104 359 5062 560 5074 61 5409 180
223 5083 264 5078 138
160 5090 98 5094 83 5076 33
1987 5081 111 5117 103 5120 35 5076 194 5093 83 5112 79 5122 125 5090 146
3221 5123 177 5141 85 5080 132 5096 343 4077 66 4031 58 5105 257 5072 22 5136 222
3867 5097 29 5087 61 5123 188 5095 343 5107 248 5072 394 5111 164
3 5072 3 5096 29
3783 5090 21 5067 107 5101 284 5119 278 5124 498 5106 104 5118 235 5137 101
2 5072 38
1 5084 14
2240 5115 39 5118 158 5078 446 5083 56 5067 99 5098 284
1 5081 7
15 5074 47 5079 19
3445 5409 67 5125 142 5442 114 5128 119 5145 129 5434 87 5079 28 5091 359 5074 115 5110 211 5437 217
1186 5095 257 4046 233 5109 14 4077 60 4031 131
142 5090 68 5067 10 5098 104
995 5096 248 5123 99 5087 82 5139 115 5111 298
1452 5110 209 5112 97 5081 145 5079 30 5116 36 5127 34 5122 128
1 5105 14
2882 5108 209 5127 250 5079 237 5116 102 5104 211 5128 145
3660 5139 134 5142 263 5126 256 5087 124 5096 164 5107 298 5089 315 5134 34
920 5148 48 5108 97 5094 79 5127 82 5081 191 5122 372
1937 5126 126 5121 118 5135 93 5084 274 5083 75 5140 90
1 5083 10
1364 5121 146 5118 161 5101 39 5132 147 5083 207
48 5108 36 5110 102
807 5122 40 5124 216 5133 91 5090 155 5094 103
1535 5137 94 5101 158 5132 34 5115 161 5098 235
437 5098 278 5124 140 5090 83
2 5094 35
867 5135 79 5132 44 5083 183 5115 146 5113 118
2898 5131 107 5112 372 5108 128 5094 125 5148 129 5127 96 5117 40 5133 201
2172 5136 84 5096 188 5146 174 5139 59 5152 74 5107 99 5095 177 5129 53 5141 49
3461 5137 142 5153 180 5090 9 5157 178 5117 216 5119 140 5098 498 5143 15 5133 261
57 5104 142
4353 5160 15 5111 256 5084 137 5113 126 5138 85 5149 53 5142 155 5089 227 5140 411 5165 47 5130 75 5163 101 5156 260
3554 5151 44 5110 250 5158 173 5122 96 5128 228 5112 82 5159 69 5148 233 5108 34
1719 5154 99 5144 131 5110 145 5127 228 5145 80 5159 107 5104 119
9 5123 53
37 5089 19 5126 75
18 5122 107
1369 5115 147 5121 44 5135 86 5147 93 5150 101 5118 34 5137 193
3940 5148 239 5157 257 5171 204 5117 91 5124 261 5176 13 5122 201
2 5111 34
762 5121 79 5132 86 5140 132 5147 156 5113 93
1195 5123 84 5152 171 5095 222 5141 38 4077 181
2998 5153 206 5174 112 5150 227 5166 85 5124 142 5118 94 5132 193 5170 104 5098 101
8 5126 85
3914 5156 312 5111 134 5107 115 5179 148 5164 3 5161 75 5168 162 5142 219 5146 336 5123 59
2879 5135 132 5147 176 5126 411 5163 363 5113 90
79 5095 85 5123 49 5136 38
839 5126 155 5156 124 5139 219 5160 33 5111 263
1 5124 15
587 5145 129 5154 151 5128 131
936 5104 129 5144 129 5463 61 5154 198 5128 80 5442 88
1544 5139 336 5161 268 5152 66 5162 17 5123 174
2295 5135 156 5132 93 5169 112 5140 176 5163 32 5150 408
3164 5112 48 5133 239 5171 92 5158 205 5127 233 5172 166 5122 129 5155 11 5178 30
3 5126 53
4146 5170 440 5132 101 5147 408 5137 227 5166 45 5169 123
20 5127 44 5158 52
3241 5161 266 4096 229 5146 66 5123 74 4077 65 5173 78 4131 211 5136 171
1141 5124 180 5174 60 5137 206 5157 166
2942 5183 154 5479 12 5487 176 5503 65 5481 70 5145 198 5144 151 5490 101 5159 351 5463 145 5128 99
1 5148 11
3993 5139 312 5142 124 5126 260 5160 34 5163 47 5179 156 5164 18 5180 247 5165 59
3389 5171 209 5153 166 5124 178 5175 17 5174 187 5177 69 5133 257
3987 5172 216 5159 318 5127 173 5148 205 5167 75 5182 155 5151 52
2974 5158 318 5183 72 5154 351 5127 69 5182 48 5128 107
29 5142 33 5126 15 5156 34
3912 5146 268 5168 95 5152 266 5179 169 5162 49 5173 292 4131 109 5139 75
11 5146 17 5161 49
1395 5180 67 5156 47 5140 363 5169 226 5147 32 5126 101
2 5139 3 5156 18
14 5126 47 5156 59
39 5150 45 5137 85
7 5158 75
285 5139 162 5161 95 5179 37
2030 5181 51 5170 98 5147 112 5180 118 5163 226 5150 123
1516 5169 98 5174 122 5150 440 5137 104
1989 5148 92 5133 204 5172 126 5157 209
1478 5171 126 5148 166 5182 9 5158 216
206 5152 78 5161 292
1614 5137 112 5170 122 5153 60 5157 187
1 5157 17
1 5133 13
6 5157 69
2 5148 30
1582 5156 156 5161 169 5139 148 5168 37
1029 5156 247 5163 67 5169 118
5 5169 51
120 5159 48 5172 9 5158 155
993 5159 72 5154 154 5503 45 5487 170
2512 5187 250 4827 110 4831 458 4810 88 5207 100 5214 164 5197 47
2619 4838 134 5201 270 4807 152 5200 146 4836 85 4806 68
3 4801 23
4047 5197 3 5229 37 5224 330 5184 250 5198 227 5214 225 4827 344
3255 5189 166 5205 120 4828 135 5203 78 4822 104 4805 60 5215 14 4835 251 5212 322
1475 4822 178 5205 87 5188 166 4801 115 5196 144
940 5206 50 4830 147 4801 211 5196 228
23 4837 92
4263 4830 368 5237 129 5206 180 5208 21 4838 199 5204 326 5230 149 5193 111 5210 62 4819 129
109 5192 111 4819 57
380 4870 102 4825 136 4837 60 5199 77
1075 5198 141 5209 114 4813 31 5218 16 4837 228 4827 77
2877 5202 80 5190 228 5205 162 5206 195 5189 144 4801 33 5222 235
7 5184 47 5187 3
2002 5224 71 5187 227 5228 115 5238 114 5209 65 5195 141 4827 154 5221 12
2998 5194 77 5209 194 5213 24 5236 155 4870 282 4837 291 5220 404
983 5185 146 5204 115 5211 95 4838 47 5201 120
2231 5223 86 5227 76 5185 270 5200 120 5211 166
15 5196 80
1487 5225 132 5232 1 4831 262 5214 34 5188 78 4828 46 5212 202
2766 5200 115 4838 104 5237 130 5242 80 5192 326 5211 169 5227 126 5235 102
610 5189 87 5188 120 5196 162 5212 59 5222 99
2809 5240 201 5222 261 5192 180 5190 50 5216 25 5246 17 5230 97 4830 124 5196 195
24 5184 100
1 5192 21
3181 5238 198 5236 315 5217 76 5218 106 5198 65 5199 194 4837 192 5228 206 5195 114
5 5192 62
1464 5204 169 5223 46 5201 166 5227 223 5200 95
3339 5205 59 5222 207 5219 25 5234 284 5188 322 5203 202 5232 90 5243 119
2 5199 24
1490 5184 164 4831 81 5229 51 5224 29 5225 173 5187 225 5203 34
1 5188 14
2 5206 25
17 5209 76
24 5195 16 5209 106
2 5212 25
2478 5249 41 5245 270 5231 55 5199 404 5236 137 4870 125 4892 274
1 5198 12
3319 5246 182 5212 207 5243 144 5206 261 5196 235 5226 104 5205 99 5239 89
75 5227 69 5201 86 5211 46
1894 5187 330 5198 71 5238 367 5241 329 5225 83 5214 29
3369 5251 120 5224 83 5232 369 5203 132 5260 98 5214 173 5241 149
19 5222 104 5243 26
2691 5211 223 5223 69 5201 76 5255 20 5242 48 5204 126 5247 283 5233 34
551 5209 206 5238 117 5198 115
28 5214 51 5187 37
1517 5240 20 5244 306 5206 97 5192 149 5237 249
4 5220 55
2124 5270 11 5225 369 5212 90 5250 313 5203 1 5234 102 5260 123
3 5227 34
780 5212 284 5243 76 5250 60 5232 102
21 5204 102
1814 5199 155 5259 24 5238 81 5209 315 5249 288 5220 137
2638 5253 92 5267 58 5242 380 5204 130 5244 107 5230 249 5261 78 5192 129
3429 5256 296 5209 198 5224 367 5198 114 5259 191 5236 81 5241 81 5228 117
98 5246 81 5222 89
688 5244 183 5206 201 5230 20 5246 86
3443 5271 5 5224 329 5238 81 5260 198 5272 188 5265 79 5251 38 5225 149 5256 120
2073 5227 48 5237 380 5204 80 5267 61 5266 126 5247 142 5268 246
3919 5212 119 5226 26 5258 19 5279 124 5246 107 5234 76 5222 144 5250 293 5263 174 5264 336 5275 115
3512 5240 183 5237 107 5248 19 5269 126 5246 126 5261 120 5230 306 5267 216
2741 5249 342 5273 148 4892 77 5252 5 4891 298 5220 270
4323 5222 182 5264 244 5277 119 5239 81 5206 17 5243 107 5269 342 5244 126 5240 86 5286 127
3401 5227 283 5274 307 5254 21 5242 142 5266 174 5255 168
1 5244 19
3243 5220 41 5281 351 5276 72 5236 288 5273 229 5245 342 5259 304
3702 5282 181 5232 313 5270 270 5275 117 5257 35 5234 60 5243 293
103 5260 14 5225 120 5241 38
28 5245 5 4891 110
8 5237 92
1 5247 21
542 5247 168 5274 94 5227 20
2915 5291 34 5292 54 5276 66 5262 29 5238 296 5259 41 5278 334 5241 120 5272 216
2 5250 35
1 5243 19
1094 5236 24 5249 304 5256 41 5238 191 5276 186
2080 5284 138 5270 216 5232 123 5271 12 5225 98 5272 104 5251 14 5241 198
432 5244 120 5267 140 5237 78
2 5256 29
60 5243 174 5279 10
1275 5243 336 5246 244 5286 222 5279 188
6 5241 79
3533 5310 224 5274 172 5299 104 5268 199 5242 126 5247 174 5285 205
2211 5288 91 5237 58 5261 140 5283 57 5268 153 5244 216 5269 413 5285 71 5242 61
1568 5242 246 5285 116 5267 153 5266 199
3549 5285 87 5286 116 5246 342 5296 310 5280 88 5244 126 5300 48 5267 413
1637 5250 270 5232 11 5260 216 5282 87 5284 233
4 5260 12 5241 5
1946 5291 106 5292 78 5241 188 5256 216 5284 170 5293 2 5260 104
1179 5287 165 5281 82 5249 229 4949 56 5245 148 5289 70 4891 100
2847 5255 94 5266 172 5299 272 5247 307 5303 26
504 5282 65 5243 115 5250 117 5279 93
1180 5281 100 5259 186 5256 66 5287 89 5278 248 5249 72
28 5246 119
3056 5256 334 5313 83 5287 92 5292 159 5297 139 5301 132 5294 67 5276 248
2171 5264 188 5295 160 5243 124 5282 178 5286 60 5263 10 5275 93 5305 151
15 5269 88
892 5287 170 5273 82 5249 351 5276 100
2117 5302 250 5279 178 5250 181 5275 65 5295 108 5284 35 5270 87
3 5267 57
3479 5308 159 5293 114 5291 201 5302 42 5260 138 5306 147 5270 233 5309 43 5272 170 5312 206 5282 35
2161 5266 205 5268 116 5269 87 5288 102 5310 333 5296 160 5267 71
2519 5279 60 5296 118 5246 127 5264 222 5298 23 5307 320 5305 48 5269 116
3321 5273 165 5278 92 4949 54 5281 170 5311 14 4978 227 5297 155 5290 13 4959 122 5276 89
90 5285 102 5267 91
11 5273 70
1 5287 13
1105 5284 201 5272 106 5256 34 5312 157 5292 205
3078 5291 205 5312 236 5272 78 5278 159 5328 76 5256 54 5313 182 5301 145 5314 30
35 5284 114 5272 2
4 5278 67
905 5302 18 5282 108 5279 160 5305 244
2874 5285 160 5320 315 5269 310 5286 118 5310 169 5307 242
986 5278 139 5311 215 5313 117 5287 155
4 5286 23
3339 5266 104 5310 219 5303 30 5274 272 5315 195 5324 285
4 5269 48
172 5278 132 5292 145
3544 5316 6 5295 18 5284 42 5317 320 5282 250 5318 273 5305 38 5306 95 5341 61 5340 116 5336 88
17 5274 26 5299 30
3 4959 44
2015 5302 38 5279 151 5295 244 5286 48 5307 164 5319 218 5317 183
888 5318 168 5284 147 5312 164 5302 95
2463 5305 164 5321 15 5323 182 5320 110 5325 11 5286 320 5296 242 5319 128
138 5284 159 5312 124
2 5284 43
3208 5266 224 5299 219 5320 134 5327 436 5285 333 5324 41 5296 169
3263 5287 14 5334 184 5297 215 5313 352 4978 330 5330 117
3894 5331 178 5306 164 5328 97 5318 62 5292 236 5332 284 5291 157 5284 206 5308 124 5326 22
2141 5292 182 5334 123 5311 352 5297 117 5333 240 5278 83 5328 78
2 5292 30
1019 5324 381 5299 195 5344 42
1 5302 6
1480 5305 183 5302 320 5341 45 5319 172
1974 5302 273 5331 169 5306 168 5312 62 5336 118
2879 5317 172 5342 75 5305 218 5341 107 5307 128 5323 197 5335 382 5325 53
4306 5359 41 5371 142 5310 134 5343 13 5307 110 5346 120 5296 315 5327 113 5338 421 5329 20 5323 280
1 5307 15
44 4978 131
3097 5343 86 5346 164 5337 60 5325 38 5320 280 5307 182 5335 65 5319 197
3440 5356 91 5299 285 5310 41 5344 190 5345 81 5327 201 5315 381
34 5319 53 5307 11 5323 38
1 5312 22
2980 5345 311 5320 113 5338 265 5310 436 5324 201
1574 5332 106 5355 97 5292 76 5312 97 5313 78 5333 476
1 5320 20
1666 4978 58 5311 117 5339 141 5334 234 4970 189
2590 5336 232 5351 250 5312 178 5348 23 5318 169 5332 178
2184 5328 106 5351 92 5312 284 5331 178 5355 107 5349 34 5333 249
4166 5332 249 5353 131 5328 476 5362 25 5313 240 5355 111 5334 56 5365 102 5367 190 5354 16
3691 5313 123 5350 318 5339 261 5353 113 5333 56 5364 110 5352 139 5357 19 5347 67 5311 184 5330 234
2319 5319 382 5337 8 5323 65 5341 311 5369 162 5346 204
3028 5366 297 5331 232 5368 31 5351 58 5341 132 5358 30 5318 118 5302 88 5340 206
7 5323 60 5335 8
3534 5356 79 5345 153 5327 265 5371 180 5320 421 5376 167 5363 74
1796 5334 261 5370 77 4970 168 5017 152 5002 40 5364 103 5330 141
606 5341 52 5336 206 5302 116
4046 5342 105 5358 29 5372 178 5340 52 5369 324 5368 57 5317 45 5336 132 5335 311 5319 107 5302 61
95 5319 75 5341 105
128 5323 86 5371 35 5320 13 5346 145
1769 5324 190 5360 17 5356 127 5315 42 5361 274
1066 5327 311 5338 153 5324 81 5356 184
2870 5320 120 5369 155 5371 245 5343 145 5375 142 5323 164 5335 204
51 5334 67 5350 22
1 5331 23
4 5332 34
2499 5353 90 5364 135 5352 20 5373 148 5334 318 5347 22 5365 83
2451 5377 242 5355 329 5366 515 5331 250 5394 32 5332 92 5336 58
81 5334 139 5350 20
575 5334 113 5333 131 5350 90 5365 93
1 5333 16
2850 5328 97 5351 329 5365 15 5332 107 5377 335 5367 137 5333 111
2902 5361 213 5345 184 5344 127 5376 253 5338 79 5384 107 5324 91 5392 28
1 5334 19
17 5336 30 5341 29
2 5320 41
1 5344 17
2815 5356 213 5344 274 5384 389
1 5333 25
13 5338 74
1165 5334 110 5370 138 5379 57 5350 135 5381 57 5373 26 5339 103
2591 5389 81 5353 93 5350 83 5355 15 5390 134 5377 188 5367 379 5373 157 5333 102
3510 5351 515 5372 278 5374 85 5385 293 5394 33 5336 297 5368 37
1608 5365 379 5377 70 5355 137 5333 190
92 5372 52 5341 57 5336 31 5366 37
3229 5372 201 5335 162 5382 121 5341 324 5393 254 5375 195 5346 155
2919 5017 156 5379 111 5339 77 5381 246 5364 138 5038 272 5062 29
2394 5378 156 5376 117 5388 34 5375 93 5343 35 5320 142 5338 180 5380 166 5346 245
2037 5368 52 5369 201 5366 278 5386 55 5385 317 5341 178 5393 13
1059 5350 148 5381 231 5389 113 5364 26 5365 157
13 5366 85
2961 5418 113 5403 47 5380 366 5346 142 5371 93 5393 242 5414 91 5369 195
3474 5356 253 5378 355 5392 368 5338 167 5371 117 5391 77
4002 5365 188 5351 242 5355 335 5387 125 5367 70 5400 83 5394 222 5390 109 5397 175
2993 5376 355 5415 131 5388 243 5408 136 5419 138 5405 22 5392 86 5380 30 5371 156
105 5370 111 5364 57
2410 5371 166 5408 172 5378 30 5375 366 5403 5 5388 277 5418 55
3515 5412 10 5409 124 5395 46 5373 231 5370 246 5402 270 5062 7 5091 88 5364 57 5389 151
39 5369 121
2 5038 29
2152 5356 107 5361 389 5404 100 5398 136 5392 162
3169 5372 317 5393 291 5366 293 5410 226 5394 144
7 5372 55
31 5377 125
822 5378 243 5371 34 5380 277 5408 258
1670 5396 13 5365 81 5399 151 5402 181 5381 151 5373 113 5390 121
1051 5399 143 5389 121 5365 134 5400 142 5377 109
9 5376 77
2435 5411 52 5356 28 5415 118 5378 86 5384 162 5404 218 5376 368
3727 5417 332 5407 73 5385 291 5414 126 5401 186 5369 254 5372 13 5410 204 5426 155 5375 242
1885 5397 251 5422 71 5413 39 5351 32 5366 33 5377 222 5410 98 5385 144
3 5381 46
1 5389 13
4255 5436 61 5420 135 5377 175 5440 105 5422 235 5394 251 5400 210 5425 311 5416 21
1301 5384 136 5424 100 5404 197
3413 5425 218 5400 158 5402 202 5439 92 5423 89 5389 151 5420 42 5390 143
1008 5399 158 5397 210 5390 142 5377 83 5420 72
24 5393 186
2541 5389 181 5399 202 5412 1 5423 283 5381 270 5421 32 5409 105
4 5375 47 5380 5
3511 5411 62 5398 197 5429 122 5415 182 5384 100 5392 218 5432 196 5424 123
3 5378 22
9 5062 107
7 5393 73
3064 5378 136 5435 113 5380 172 5428 25 5388 258 5418 208 5419 283
1555 5423 84 5104 67 5091 180 5402 105 5381 124 5434 116
1757 5422 190 5394 98 5385 226 5426 88 5393 204
53 5404 62 5392 52
1 5381 10 5402 1
4 5394 39
1006 5417 40 5427 143 5418 106 5375 91 5393 126
1488 5419 262 5392 118 5404 182 5431 55 5378 131 5432 58
3 5397 21
2054 5426 69 5441 71 5393 332 5427 331 5414 40
2824 5427 135 5414 106 5380 55 5445 108 5375 113 5408 208 5435 313
3551 5415 262 5408 283 5378 138 5435 153 5431 296 5448 208
192 5399 42 5397 135 5400 72 5425 37
8 5402 32
1940 5397 235 5436 296 5410 190 5394 71 5426 106
2784 5409 84 5434 115 5443 11 5402 283 5439 106 5447 142 5438 154 5452 4 5399 89
558 5398 100 5433 12 5404 123 5429 173
2785 5397 311 5440 61 5444 211 5399 218 5452 194 5439 79 5420 37 5462 99
2106 5430 65 5422 106 5436 106 5441 118 5410 88 5417 69 5393 155 5451 243
2399 5441 178 5414 143 5418 135 5417 331 5445 309
2 5408 25
1329 5404 122 5433 273 5432 50 5424 173
4 5426 65
1488 5446 297 5419 296 5448 111 5432 79 5415 55
1191 5433 168 5429 50 5404 196 5431 79 5415 58 5446 137
2481 5454 250 5424 12 5453 28 5446 117 5429 273 5458 306 5432 168
998 5442 259 5423 115 5104 87 5437 73 5409 116 5438 42
2777 5459 39 5445 168 5408 113 5448 80 5465 157 5418 313 5419 153
2641 5422 296 5455 40 5464 101 5440 67 5397 61 5457 12 5426 106 5451 214 5444 131
498 5442 215 5434 73 5104 217
1087 5447 158 5463 176 5423 154 5442 251 5434 42
767 5423 106 5425 79 5399 92 5452 156
311 5436 67 5397 105 5425 61 5444 146
1787 5426 118 5451 126 5427 178 5445 166 5417 71 5466 109
2613 5438 251 5437 215 5463 286 5434 259 5145 88 5104 114
1 5423 11
3449 5462 482 5464 284 5425 211 5478 167 5491 100 5436 131 5440 146 5450 30
3861 5427 309 5461 76 5441 166 5474 17 5435 168 5471 455 5466 112 5465 152 5418 108
3440 5475 129 5431 297 5460 11 5458 229 5476 171 5433 117 5448 186 5432 137
1646 5438 158 5467 16 5423 142 5463 78 5468 100 5452 255 5449 29
2736 5435 80 5431 111 5485 46 5465 278 5476 137 5446 186 5475 43 5419 208
2 5447 29
2 5444 30
3466 5466 93 5436 214 5464 563 5457 91 5426 243 5441 126 5470 287 5484 116 5473 63
3181 5456 19 5425 194 5478 57 5439 156 5468 226 5480 157 5462 210 5423 4 5447 255
5 5433 28
3280 5458 145 5433 250 5502 40 5472 267 5483 33 5493 199
7 5436 40
1 5452 19
30 5451 91 5436 12
2155 5454 145 5472 433 5446 229 5476 76 5433 306 5482 28
4 5435 39
1 5446 11
42 5445 76
2227 5425 99 5469 25 5478 134 5444 482 5452 210
2373 5481 73 5487 59 5145 61 5468 341 5447 78 5442 286 5438 176 5154 145
3390 5491 288 5444 284 5484 60 5504 53 5436 101 5451 563
3698 5471 232 5445 152 5494 91 5448 278 5435 157 5485 164 5496 84 5489 163 5495 13
1397 5470 294 5471 148 5451 93 5484 132 5445 112 5441 109
1 5447 16
3165 5463 341 5447 100 5486 339 5487 99 5452 226 5477 188 5480 136
2 5462 25
1891 5451 287 5473 32 5484 246 5466 294
2157 5445 455 5489 260 5465 232 5466 148 5484 44
3126 5454 267 5458 433 5499 156 5482 268 5501 48 5493 205
14 5470 32 5451 63
1 5445 17
166 5446 129 5448 43 5476 60
3156 5448 137 5482 316 5485 158 5496 180 5488 97 5475 60 5500 117 5446 171 5458 76
103 5468 188
2610 5480 251 5497 170 5462 134 5452 57 5491 183 5444 167
1 5154 12
3914 5497 77 5468 136 5486 281 5492 4 5452 157 5478 251
245 5487 96 5463 73 5154 70
3783 5488 172 5500 204 5458 28 5476 316 5493 113 5472 268
6 5454 33
2886 5504 206 5470 246 5466 132 5464 60 5489 260 5451 116 5471 44
995 5465 164 5448 46 5496 235 5476 158
2653 5487 352 5480 281 5468 339 5492 122
3130 5486 352 5490 37 5481 96 5468 99 5183 170 5463 59 5154 176
92 5476 97 5482 172
2779 5498 416 5504 77 5471 260 5494 47 5465 163 5484 260
34 5487 37 5154 101
2791 5497 106 5478 183 5464 288 5506 19 5444 100 5504 103
19 5486 122 5480 4
2272 5454 199 5502 110 5472 205 5482 113 5499 94
207 5496 19 5465 91 5498 42 5489 47
1 5465 13
2850 5500 143 5498 163 5485 235 5465 84 5505 18 5494 19 5476 180
417 5480 77 5478 170 5491 106
1854 5496 163 5494 42 5489 416
146 5493 94 5472 156
1050 5482 204 5476 117 5496 143
3 5472 48
490 5454 40 5493 110
16 5154 65 5183 45
1071 5506 10 5464 53 5484 206 5491 103 5489 77
1 5496 18
10 5504 10 5491 19
